52
Coordinates from ORCA-job 100313 E -1191.883792643999
  O           3.40415219418032     -1.48498321042941      1.05035642358427
  O          -2.65105634013440     -0.68992275358511     -1.98462688990188
  O          -4.58307383202358     -1.24631872909994     -0.20739138425544
  O           2.29779436572227     -3.38743311651665     -1.32972151111864
  O           0.19331046974098     -0.60034451999499      1.80640495328786
  C           2.14704304212915      3.81106589010331      0.10606102493445
  C           2.39859912718065      3.09801030792409     -1.22265804716857
  C           0.82684162774560      4.58947074951349      0.16316063545239
  C           3.65126728828161      2.21543053081984     -1.23465671514663
  C          -0.43252145737444      3.74116214889886     -0.04925517330062
  C           3.62321548296253      1.02544270823833     -0.26849590737277
  C          -0.58411873627233      2.60754499350042      0.97080194120518
  C           2.45644516204309      0.07647171099636     -0.50555714847927
  C          -1.69698353150893      1.63657665948798      0.67032042685699
  C           2.47437679453742     -1.17048566834491      0.34920153281902
  C          -1.70919200510273      0.93418896182941     -0.53749396887345
  C          -2.69417820434842      1.36528507217898      1.60295968443181
  C           1.23020289573526     -2.02126023552339      0.25425246303604
  C          -2.68267433953469     -0.00882975831288     -0.81060416698355
  C          -3.68131512638294      0.41394144773420      1.33828228573027
  C          -3.67772016055137     -0.26974694985089      0.13831026462538
  C           1.17617884194371     -3.12187019292019     -0.59766033201574
  C           0.09681680980382     -1.68965343156576      0.99079467653257
  C           0.01537494872563     -3.88166112995283     -0.71123531815463
  C          -1.06860520183472     -2.44502968965866      0.89559763732467
  C          -1.09965116474039     -3.53352779864619      0.03888727182497
  H          -3.36563511950214     -1.34054115934267     -1.98000349331258
  H          -5.25642566030917     -1.33170932630496      0.47543939760392
  H           2.14106020460661     -4.15385006382870     -1.89192144788094
  H          -0.69190144445144     -0.27538331361007      2.02004337322589
  H           2.17646178533589      3.08856480454167      0.92463379756329
  H           2.97285007000018      4.50383792765232      0.29701352142396
  H           1.53227456868355      2.48705460770866     -1.48732839311734
  H           2.48325752219493      3.84795244699569     -2.01604212233541
  H           0.75871391324783      5.09427766611717      1.13249604399571
  H           0.84331414877815      5.38124393795019     -0.59281009351810
  H           3.80223125518862      1.83841142790655     -2.25174438027821
  H           4.52675030308072      2.83149560178584     -1.00513262971882
  H          -1.31523280391928      4.38493436367832     -0.00069095682236
  H          -0.42577946281753      3.32299125594908     -1.05779558233707
  H           4.55578506490714      0.46583204856341     -0.35986578316467
  H           3.59187658879375      1.37213611227258      0.76682839628205
  H           0.34771339687335      2.04021203422164      1.02458310038435
  H          -0.73440061280790      3.03366629410108      1.96638812973142
  H           1.49104191884395      0.56061113482954     -0.33940451795335
  H           2.42936792420117     -0.26689364103566     -1.54830745137468
  H          -0.93936950727074      1.09263083946870     -1.28117820405003
  H          -2.70931650996258      1.89849972251644      2.54507977619035
  H          -4.45252368522826      0.20931220526844      2.07295309944743
  H          -0.01264066921210     -4.73250686441785     -1.38179415664446
  H          -1.93659063186557     -2.17132029585378      1.48017420580338
  H          -2.00481050831228     -4.12074676395710     -0.04576328801839
