35
Coordinates from ORCA-job 100572 E -732.730303777496
  O          -1.56460417293830     -1.23824733915144      0.02781415809527
  O          -3.80987286164588     -1.16911928753021      0.05485756118550
  C           0.75287608142006     -0.75465727146302      0.57678936198471
  C           2.01656695054226      0.09006007246052      0.27552288966796
  C          -0.47577539431617     -0.30695661007526     -0.19638374667088
  C          -1.02664789413879      1.05897060613111      0.21972762536632
  C           2.53507289619411     -0.52252066808303     -1.04803275924732
  C           1.19832370379957     -2.14722193061637      0.16340554688144
  C           2.30311794305021     -2.03092545831725     -0.87421049798320
  C           2.04171738536469      1.60253486248292      0.26623863275165
  C          -0.35263739805500      2.23131954480414     -0.46865255894441
  C           1.07962916675527      2.46351160674530     -0.07740911690784
  C          -2.49595652852715      0.87726831896966     -0.02865436184865
  C          -2.76072409536474     -0.59134849575925      0.01921658846889
  C           3.40299988600640      2.14476220614950      0.63172463054676
  C           0.72057493594978     -3.27827965334503      0.66130409063546
  C          -3.44768793104277      1.76520633280787     -0.27898190633419
  H           0.50050844269824     -0.72107916062109      1.63871955147183
  H           2.73050164513142     -0.21751069225511      1.04772337868452
  H          -0.27544071104379     -0.31198429754211     -1.27259283644295
  H          -0.87571245196760      1.15837278887255      1.30227254763472
  H           1.95493697323544     -0.12686576974448     -1.88405954000508
  H           3.57835711180799     -0.27189103807404     -1.23612946434967
  H           2.03216681776950     -2.51981947407686     -1.81165087237924
  H           3.20887735104056     -2.52279482645590     -0.51122987958632
  H          -0.43858487519735      2.10490581448626     -1.55541658228295
  H          -0.91264479887377      3.14058088290693     -0.23732615685285
  H           1.36568959004056      3.51118823694871     -0.08456792632999
  H           3.65042637370797      1.89535511356284      1.66822294253811
  H           4.18585959568012      1.70335799413814      0.00830613595951
  H           3.45122599217678      3.22736777733885      0.52066262919840
  H           1.08750059423791     -4.24133280693988      0.32559763851578
  H          -0.06590980816134     -3.28413621261409      1.40412769455446
  H          -4.46595032947547      1.43246997568189     -0.43557597841980
  H          -3.24699218586075      2.82738485817724     -0.33435441955595
