33
Coordinates from ORCA-job 10062187 E -955.824355894777
  O          -2.45553483978355     -2.12132967160311     -0.02658099094516
  O           4.56054516323198     -1.77391097691338      0.00029537274751
  O          -0.16017129151139      2.67000985725117      0.50827689099864
  O          -2.81007591308845      2.45385536659941     -0.08227521383174
  C           1.68691991512263      0.45979096194143      0.02834692949042
  C           2.40421430711756      1.78697839198213     -0.02229323282184
  C           0.28035232717963      0.36684795331639      0.07679510983627
  C           3.81666094590149      1.68070857051519     -0.58747929130025
  C           2.43742421011745     -0.73298865767187      0.00536609588037
  C          -0.33662049043963     -0.90728261355677      0.03289480894058
  C           4.61594037186387      0.60690640110560      0.13867405607279
  C           3.93392829533772     -0.73442924982015      0.03615098320201
  C          -1.77561587213667     -0.95795581518927      0.01686845470110
  C          -2.64890988794850      0.09697574169547     -0.00522421332413
  C           1.80310389913948     -1.97606180641546     -0.00682825590686
  C           0.42790735791220     -2.07176956951632     -0.00542935269976
  C          -0.58567776875449      1.57805385719991      0.21221425113491
  C          -2.14007478458091      1.45120711156125      0.01674415402944
  C          -3.97848334461153     -0.45202933365872     -0.07000415881570
  C          -3.79513292375835     -1.79657053663984     -0.07601840400495
  C          -5.26314946965773      0.30226601042390     -0.11400834078533
  H           1.81822970117086      2.50041515260992     -0.59671623261600
  H           2.43585551578539      2.20645520800874      0.98926188466825
  H           3.76774354790561      1.43893279694736     -1.65400170989218
  H           4.31476715044882      2.64816951818230     -0.50664111914807
  H           5.63404449465172      0.50138980362123     -0.23516837654341
  H           4.68529567618358      0.85512753370723      1.20554036946021
  H           2.42619995184444     -2.86008799203638     -0.01900865445728
  H          -0.06393526067630     -3.03404327215498     -0.02842144674558
  H          -4.47246900876079     -2.63153670870328     -0.10830653877816
  H          -5.36431896729591      0.94531304657760      0.76181427714624
  H          -5.29756135114069      0.95597606093717     -0.98687827178941
  H          -6.11482865676953     -0.37698414030388     -0.14984783390291
