53
Coordinates from ORCA-job 100659 E -1042.845705844476
  O          -4.74503986837431      2.40227208808611      0.45161456008608
  O          -4.47264198719912     -2.29536482550798      0.41214414663036
  O          -6.75777919140872     -2.52490253733419     -0.86550982784160
  O          -7.00709967475900      2.19792836347047     -0.81126326499310
  C           3.10920655744282      0.01020034337721     -0.18127461683010
  C           4.45612298279990      0.02532068837587      0.53706614153344
  C           1.91304868722312      0.05036322828947      0.76633442240259
  C           5.65246983007851     -0.01471253808015     -0.41034236207917
  C           0.56636323478232      0.03394157373003      0.04750868383117
  C           6.99944213870939     -0.00002651360025      0.30792056236911
  C          -0.62887582607779      0.07417391421203      0.99616102089440
  C           8.19585641594192     -0.04004621827924     -0.63948470604018
  C          -1.97209275287183      0.05414699730302      0.27337457403718
  C           9.54284471403337     -0.02556931017220      0.07855324449966
  C          -3.16369002368948      0.09840570347058      1.24162838954814
  C          10.74038145785205     -0.06516298792535     -0.86826521197808
  C          -4.48062103195012      0.05712164259087      0.52899942087358
  C          12.08165827943649     -0.05040647178384     -0.13965581960831
  C          -5.16595174669913      1.16426751656213      0.17810432896943
  C          -5.02988760695629     -1.24647953505963      0.15474205286150
  C          -6.35462862839806     -1.28363389644702     -0.58897401174317
  C          -6.47213743319405      1.12448726178658     -0.55593780955650
  C          -7.02178675466158     -0.16049623159045     -0.91710659766868
  H          -5.43644683779350      2.99716964702043      0.09486784289647
  H          -7.60180653655292     -2.50356122272412     -1.33658581554508
  H           3.05576526655367      0.86329116017515     -0.86738182014398
  H           3.04377463805533     -0.88657441699207     -0.80797798401911
  H           4.52140979673030      0.92191013901210      1.16413899290702
  H           4.50948368747838     -0.82787470931978      1.22299287455413
  H           1.96659284078919     -0.80244919969415      1.45260229981244
  H           1.97781912149718      0.94750347467455      1.39263744524872
  H           5.58699375090538     -0.91119546286881     -1.03752096955143
  H           5.59916398998884      0.83859399210152     -1.09619964220650
  H           0.51230837285819      0.88662688093599     -0.63893268424634
  H           0.50086687362208     -0.86367020189360     -0.57765988097188
  H           7.06490207999471      0.89640080312214      0.93519205258889
  H           7.05269813941066     -0.85335233359386      0.99370777888075
  H          -0.57631462769685     -0.77865352852630      1.68200400862674
  H          -0.56632384924881      0.97276629165472      1.62046725975970
  H           8.13024801675398     -0.93645767724982     -1.26679370337642
  H           8.14256679913060      0.81339247755653     -1.32520056841574
  H          -2.03573062727059      0.90675895385447     -0.40984813021492
  H          -2.04527730978637     -0.84887598109500     -0.33905986840425
  H           9.60903759881322      0.87069014620942      0.70631843975448
  H           9.59694289371017     -0.87918698512740      0.76422947415009
  H          -3.10405098159146     -0.75708234596425      1.91685244525711
  H          -3.10939696643405      1.00748689370162      1.84282556169736
  H          10.67352590227591     -0.96092940050525     -1.49487507356332
  H          10.68565132746744      0.78815710493001     -1.55264239308429
  H          12.17566146837883     -0.91120836966354      0.52735195167614
  H          12.91894876920749     -0.07911602447403     -0.83987028930441
  H          12.18767251528813      0.85088616047313      0.46956668415017
  H          -7.96637488459572     -0.17083452120385     -1.44782560911031
