39
Coordinates from ORCA-job 100771 E -922.257485967765
  O           0.53668063300105     -1.63054242965882     -0.82334778839698
  O           2.57937243973016     -2.82562223277076      0.51695644166758
  O           4.75570487525856     -1.39013599470684      1.30242256376328
  C           2.76324543523584      1.25848904528762     -0.24587146352528
  C           1.58276659305658     -0.82564000097662     -0.40468435850854
  C           1.64753583264473      0.53475885931115     -0.65927472269546
  C           2.84584197690090      2.74511233745059     -0.52719852772271
  C          -3.43746253847055     -0.69742627176136      0.05455424250036
  C           3.80029040014284      0.60186715870544      0.41304421776200
  C          -0.76118650509368     -1.26963051384673     -0.50937662448967
  C           2.61409568062657     -1.48399276297803      0.24910947667682
  C           3.73442399989844     -0.76315641118835      0.65736470000201
  C          -4.88447923678288     -0.38389815103457      0.37105828050099
  C          -3.08473554964395     -1.42821148082633     -1.07686250614960
  C          -2.41606393196388     -0.25843330374885      0.89655551152156
  C          -1.75669898913207     -1.71452533625596     -1.36593303529548
  C          -1.08477623257232     -0.54117157158780      0.62949894484736
  C           1.64335362529299      3.49643089824729     -0.03617316279034
  C          -5.14305851055131      1.08773568676663      0.51674288838476
  C           0.81683289560554      4.19405337449605     -0.80468715591658
  C          -5.61133876394962      1.67187041153607      1.61209352177953
  H           1.75717373515887     -3.17879333793067      0.15010600661875
  H           4.53665960427930     -2.32864892625997      1.37846859725924
  H           0.82464901258102      1.02596754438639     -1.16016365758320
  H           3.74494003635870      3.14034826467941     -0.04580096087286
  H           2.96329252398300      2.91447828402912     -1.60186531129270
  H           4.67823007939708      1.14196797696892      0.74300262943668
  H          -5.51112496688724     -0.78548025288780     -0.43102644914744
  H          -5.18512837806514     -0.89488726804624      1.29077457609536
  H          -3.85882677569895     -1.77704701398228     -1.74997172072038
  H          -2.66634271145902      0.31990335871668      1.77738813966526
  H          -1.48186963122206     -2.27587842423849     -2.24892598328377
  H          -0.30459319894407     -0.19286564784218      1.29137603901101
  H           1.45123965675762      3.42876922338521      1.03151041039583
  H          -4.90265526868190      1.69500082616091     -0.35203669795454
  H          -0.04147530190602      4.71084808720269     -0.39448758303005
  H           0.97244420533399      4.27476332508897     -1.87509992243746
  H          -5.77373364114671      2.74108632760109      1.66123448708952
  H          -5.85311510907236      1.09798434250837      2.50020795683513
