35
Coordinates from ORCA-job 100801 E -807.773809263534
  O          -4.69496561869487     -0.71073127855501     -0.35155964699319
  O           4.97722859991058      0.84119647569485     -0.43327109669338
  C          -0.78258649456414      2.03066241755989      0.76300674700112
  C          -1.41924326162833      0.75086136043334      0.28558374363260
  C           0.36931856207640      2.39047103344051     -0.17577487298889
  C          -0.55693164728772     -0.25089146514003     -0.19434244276088
  C           0.90761459116456     -0.04799839637540     -0.11389402609835
  C           1.37857075981036      1.27527930421786     -0.20763467685319
  C          -2.80888352162373      0.59267924515626      0.25960762794406
  C           1.85731970953359     -1.08413815851024      0.00845236904983
  C          -1.12048360451251     -1.36880566932840     -0.80770640371730
  C           2.73214498127180      1.55517600585983     -0.30317854475730
  C          -3.33117744616116     -0.56695910469948     -0.31857556785790
  C          -2.49151653827837     -1.52887552185393     -0.86991988376703
  C           3.21626923182011     -0.78477490782985     -0.13348937417602
  C           3.65567322878891      0.51874998861093     -0.30252977150892
  C          -3.73913100356213      1.63825417985890      0.81767438952862
  C           1.56373741242023     -2.47943474837474      0.39124171832441
  C           0.66333713149858     -2.88637393002582      1.28123302812629
  H          -4.91146437146752     -1.55137031085772     -0.76903307105058
  H           5.50863866904324      0.03805563578211     -0.39520542652541
  H          -1.50867502997925      2.84064088272499      0.79268213969777
  H          -0.39373178012746      1.91031094134621      1.78148346059205
  H          -0.03416002471847      2.55951470622317     -1.18139434323753
  H           0.85139795841309      3.31807676573348      0.13670554349234
  H          -0.48240436590377     -2.12466708948075     -1.23906259378890
  H           3.08242745483449      2.57638855692988     -0.38147244993918
  H          -2.91608526300304     -2.40244064945012     -1.35331979719426
  H           3.94110526862948     -1.58856326920556     -0.05454235456143
  H          -3.41405799804203      1.97445673928679      1.80335542220021
  H          -3.78414243970287      2.51978398158937      0.17111097403412
  H          -4.74897235183253      1.24680784315238      0.90797662178609
  H           2.23113375787416     -3.22053613443807     -0.04085158790956
  H           0.57651729569992     -3.93269397355700      1.54378231311725
  H          -0.01558685169962     -2.19860045591862      1.76754483385242
