29
Coordinates from ORCA-job 10130521 E -728.366466517620
  O           0.98056076016610     -2.56642530040106      0.14783119936256
  O           2.88957621014381      1.66463778189872      0.03080993546758
  O           3.08679477881778     -0.95391753601834      0.34189666311963
  O          -4.78065221427926     -0.01467033884576      1.13379683030956
  C          -0.65971897119463      0.70291097045506     -0.41584033997228
  C           0.74516050179656     -1.23707569414315     -0.00716320212207
  C           1.71522790715775      0.96659805859634     -0.07970097406497
  C           0.47249728510950      1.52215408263151     -0.33999715344339
  C          -0.50474091423210     -0.67845062594974     -0.26060443705381
  C           1.86682458705734     -0.41087917365419      0.09456871478183
  C          -1.95663726922461      1.33268706479971     -0.67131932650249
  C          -3.17692066979355      0.91660233891803     -0.31852765762958
  C          -3.54417584972175     -0.29450417918821      0.47530379579279
  C          -0.11893331768249     -3.45242401491034      0.05452824326341
  C           2.85011139221704      3.07255315178691     -0.13240513046970
  H           3.72330866162330     -0.22581490214064      0.36405710141780
  H          -5.04592282965773     -0.79444203671784      1.63177444902007
  H           0.36185033339802      2.58847231187838     -0.47082364621839
  H          -1.35616189360427     -1.32522786289019     -0.38674237949564
  H          -1.90025845843005      2.27991926704155     -1.19927041282890
  H          -4.03077117958634      1.52198642853158     -0.60320033058838
  H          -2.75731018403462     -0.53226254431663      1.20050128640648
  H          -3.66124196732258     -1.16781210220654     -0.18462157158204
  H          -0.87457631191017     -3.23409272013984      0.81583580700721
  H          -0.58361709725878     -3.41220361541595     -0.93553883079642
  H           0.28484382661703     -4.44810072465339      0.22244075032365
  H           2.21012454029914      3.53836076700136      0.62190644622151
  H           3.87251324219643      3.42072359081707     -0.00651902629961
  H           2.49247210133314      3.34351555723559     -1.12956080342640
