83
Coordinates from ORCA-job 101341 E -1249.495025609337
  O           6.77785679447360      1.24261305116993      1.43143364090287
  C          -0.73149689787414     -0.98538883099995     -0.33063284266457
  C          -1.51427551030667      0.29622517565910      0.13412554831584
  C           0.79855921003681     -0.77174638865787     -0.11966514957360
  C           1.43128358607308      0.49931210393650     -0.76559921190133
  C          -3.03165009400142      0.11323664796442     -0.19237998667057
  C           2.83969866030426      0.65947101499160     -0.09910699066596
  C          -3.65090525790011     -1.23537673055388      0.35970719990122
  C          -0.93713351829518      1.50881602189089     -0.62258384263645
  C           3.80032005107324     -0.57021756977808     -0.19227955877427
  C           0.55901986179524      1.71245522678212     -0.37833223757153
  C          -1.20127532780262     -2.19894970285354      0.51972568479576
  C           1.66796032866183     -1.99859459569323     -0.40082821575171
  C          -2.62223432326954     -2.10761897216126      1.11085447247673
  C           3.03998894684159     -1.83593273110072      0.24933139775654
  C          -3.84916237113034      1.34118695964008      0.24846297762116
  C          -1.00844877610136     -1.31997730204771     -1.81106234535002
  C          -1.33342397285064      0.58320107466088      1.65009878973004
  C           4.97197153909301     -0.31248506986453      0.81386389443845
  C           3.57299388625006      1.95399989432000     -0.46570496075596
  C          -4.79213519713847     -0.90879242855898      1.34319884741619
  C           1.52877352152518      0.47284392776180     -2.30617823168306
  C          -5.37571420169108      1.24557765653982      0.07118117726881
  C          -5.90247065377266     -0.07116808173970      0.71513811463844
  C          -4.25093823249463     -2.08913470054804     -0.77785643541118
  C           5.71541097927399      0.99649255704914      0.50490341521070
  C           4.36272125470549     -0.80830212705819     -1.60524331109698
  C           4.76767989367743      2.18627506838497      0.45584011962374
  C           5.96180799337716     -1.47059006416898      0.95565758090286
  C          -6.00943088714105      2.45139243331062      0.77689323779071
  C          -5.74717137082294      1.31152038986722     -1.41623209072770
  H           6.38473410066658      1.43462956852607      2.29129682633153
  H           0.90757018530829     -0.60372274237648      0.95546854861879
  H          -3.09957015746261      0.07144684592074     -1.28044122624576
  H           2.61090113116527      0.74526612568719      0.97166809275779
  H          -1.13721340743390      1.41196399284852     -1.69155589214342
  H          -1.45363424490038      2.41563799234578     -0.30615589757516
  H           0.71971021599096      1.94734917012283      0.67763578342884
  H           0.88246506466732      2.59281432847327     -0.93745122779204
  H          -1.11576384991293     -3.10045548426157     -0.08946900084328
  H          -0.51255923822718     -2.34542984363824      1.35499538884083
  H           1.20063564014790     -2.89897006025511     -0.00083071203231
  H           1.77536542127657     -2.16969693563582     -1.47317346265390
  H          -2.54984752384336     -1.75438260958946      2.13843086874906
  H          -3.03617675223058     -3.11682257733568      1.18950028536729
  H           3.64935054624304     -2.71841709874899      0.04448578122124
  H           2.90100205860653     -1.80018848628842      1.33597436304468
  H          -3.65008290923122      1.55232830203760      1.30026238837838
  H          -3.50570319645536      2.21813774461558     -0.30274265750040
  H          -2.02093917309846     -1.67116302300443     -1.96636361883961
  H          -0.85517047030826     -0.48024345195565     -2.47972712106982
  H          -0.34383474217761     -2.12124164659426     -2.13479989238808
  H          -2.08576403923949      0.09684445787739      2.26182777321093
  H          -0.36373234883171      0.26987836304685      2.02796520837362
  H          -1.41419083679362      1.65335106029860      1.84283468194335
  H           4.49406098934304     -0.17232605106267      1.79426795675378
  H           3.91305996614783      1.93089777610568     -1.50293099739964
  H           2.89935389530451      2.80694517659919     -0.38738426813280
  H          -5.20707388440631     -1.84592070048362      1.72636423973503
  H          -4.38214139304331     -0.38370166433961      2.21042140497046
  H           1.69901379888949     -0.51930155349061     -2.71447331949003
  H           0.62077951759917      0.85574053196305     -2.76644057008778
  H           2.34238192730561      1.11148560735284     -2.64728124722189
  H          -6.42437722804813     -0.66703507454420     -0.03618269832601
  H          -6.64853061656323      0.16313089490025      1.47815101857066
  H          -4.91635571423174     -2.84813010352083     -0.35878856830593
  H          -4.82900542583246     -1.49797322458160     -1.48630552540911
  H          -3.48425825933947     -2.61838750196023     -1.33973199119164
  H           6.22659900535085      0.89535517491480     -0.45591495463389
  H           5.13976034676232     -1.57164714092508     -1.57441048826922
  H           3.59672782167213     -1.16401843245574     -2.28797138835928
  H           4.80093976289572      0.08531903332340     -2.04647909640694
  H           5.32487159537812      3.07763373368410      0.15914979519029
  H           4.39898945041980      2.36729380806646      1.47430485344832
  H           6.70476314398312     -1.22870321344509      1.71369533390380
  H           5.46600280043533     -2.39482746126872      1.25021772596999
  H           6.50364108914791     -1.65700942737594      0.02683961432116
  H          -5.79059717488290      2.43521123053283      1.84741733121980
  H          -5.62905215927032      3.39216331509173      0.37031080976406
  H          -7.09553799291541      2.44713095418347      0.65609255300742
  H          -6.82960638848821      1.23943072398725     -1.54645924338566
  H          -5.41895392599178      2.25677377460941     -1.85615919949808
  H          -5.29065633611660      0.50437791387878     -1.98933904947462
