30
Coordinates from ORCA-job 101807 E -691.558987912609
  O          -3.06216128092573      1.14868056778980      0.06137687341324
  O           3.23953878216666      1.20578547952110     -0.30555967583134
  O          -2.82341423720807     -0.68438715485748      1.26273150770073
  O           3.09687377106416     -0.53442503085607      1.05046006037255
  C           0.08080693326164      0.59035139465069      0.05991103197639
  C          -1.13464323883163     -0.29650548288067     -0.43237825168844
  C           1.28238411581823     -0.23315358180832     -0.51488351183059
  C          -0.64450121397493     -1.73229303237989     -0.16553029365172
  C           0.88158816977996     -1.71204670977805     -0.38190114243126
  C           0.07361442722426      2.02926435122657     -0.46013481465525
  C           0.12961854049778      0.62900335277238      1.59454429634499
  C          -1.42488934364267     -0.13446751809862     -1.93623120350722
  C          -2.40089783944440      0.00258515809934      0.37810288528928
  C           2.60656725583342      0.09208903641252      0.15635643765621
  H          -2.64846052340346      1.58410000604543     -0.69357243326938
  H           2.75177091634131      1.58869527104685     -1.04537195793065
  H           1.37845120187968      0.02749564752361     -1.57315587052921
  H          -0.89444686471829     -2.01636584785828      0.85266004898082
  H          -1.15056169485434     -2.44157216911357     -0.82040838259965
  H           1.17856052916848     -2.26560862188335     -1.27264276724284
  H           1.40726155735754     -2.15762356531426      0.45985246303433
  H           0.93338583157089      2.57546076416635     -0.06848073344015
  H           0.10670305032460      2.08214985534861     -1.54974716656036
  H          -0.80728621976148      2.57350133800321     -0.11423635702449
  H           0.16681149550931     -0.36523352530591      2.03452164094056
  H           1.01259439185899      1.17172121797465      1.93250335148326
  H          -0.74682611380969      1.13990472101849      1.99432642876856
  H          -1.64975926066476      0.88952150084064     -2.24043575560646
  H          -0.57082519164859     -0.45889449734045     -2.53057341817378
  H          -2.27395894676886     -0.75814692496531     -2.21835728998812
