31
Coordinates from ORCA-job 101977 E -468.229516256705
  O          -2.55047338584794     -2.50954652600299     -0.40639749769928
  C          -1.17645818031902      0.92456071812425      0.34055634437450
  C          -0.37958617450595      1.88247847178717     -0.55511223860027
  C          -1.66496449638539     -0.30025917843603     -0.44044500771721
  C           0.91755645221829      1.30514776000318     -1.14778547488085
  C          -2.32934878960312      1.67511840168470      1.01198237322146
  C          -2.31804683799125     -1.36650470065316      0.41833924242103
  C           1.88468664702112      0.86455083467328     -0.09126032657836
  C           2.37482405551189     -0.35633519731131      0.13329886460706
  C           3.32063991638691     -0.61007445252479      1.27527895981739
  C           2.05308393793052     -1.57524665148123     -0.68481966170265
  H          -3.01303889630428     -3.17610112824097      0.11132762642853
  H          -0.49785536778086      0.57012201013828      1.12490989245473
  H          -1.02196331620436      2.22845594973921     -1.37237231856362
  H          -0.12647994543811      2.77117080090895      0.03260148266127
  H          -2.36964749803863      0.01322829869520     -1.21813685258632
  H          -0.82556557432765     -0.77482611587980     -0.95009559543289
  H           0.68598105610958      0.49283728948605     -1.83576985415846
  H           1.38413104989164      2.08990960698735     -1.75385690354771
  H          -2.85922202719384      1.05302328935242      1.73485423064744
  H          -1.96220512342834      2.55572696335049      1.54355800718849
  H          -3.05658315013617      2.01444697665477      0.26842494605029
  H          -3.26234432648941     -1.00581714291719      0.84060483750580
  H          -1.65281254587671     -1.62355441445198      1.25401609412121
  H           2.19786802229762      1.65575384876938      0.58800855260596
  H           3.51585649904323      0.29665990865857      1.84819374066753
  H           2.91553267490520     -1.36587303055683      1.95643254245779
  H           4.27745476506944     -0.99986262817832      0.91280008051123
  H           1.54654842919986     -2.32674754295041     -0.07063216816318
  H           1.41991948350145     -1.36463518212251     -1.54317389634703
  H           2.97281964678430     -2.04172023730575     -1.05124602176386
