42
Coordinates from ORCA-job 10211 E -1185.071313324895
  O          -1.14182956719999     -0.82138508459672     -0.25208588536469
  O          -3.47316020596033     -0.48181453061611     -1.71547658067000
  O          -4.10100799071838     -1.15353807529959      1.85850566135219
  O           0.89104501334552     -2.85710505306117     -0.44634804500209
  O          -0.24938607974388      1.71324707029532      0.31665796521649
  O           4.31851803971336      0.24116821043614      0.29073893448572
  O          -0.81578894923125      3.82212699201027      0.70765934223001
  C          -4.06362965963127     -0.21627034795730     -0.43889029132413
  C          -3.39698669339180     -1.13413042746759      0.61851447432783
  C          -1.94248035804762     -0.80862537624446      0.94993504563972
  C          -3.91725830951078      1.26731914404997     -0.09254666465952
  C          -5.53150208467286     -0.59601625713950     -0.58903006920801
  C           0.18256032175931     -0.55365411025913     -0.08202433694897
  C           1.14399240227077     -1.54457803723640     -0.21684680222639
  C           0.67257927587946      0.72306513485548      0.18000610354874
  C           2.52733728109427     -1.32453576528389     -0.11072415345501
  C           2.05383175850926      0.99652971548776      0.29349501605174
  C           2.98843909458652     -0.03667566360913      0.14148032518770
  C           3.13154610378382     -2.62102140724000     -0.28359092876368
  C           2.43144279825259      2.35387434369887      0.56048240937065
  C           2.11412638123553     -3.48273111288708     -0.47925401463187
  C           1.50535032048630      3.32133277235465      0.69791108497761
  C           0.08638110803432      3.03875458134815      0.58747554142389
  C           5.09199481469046      0.17616617252754     -0.91126461635526
  H          -2.51442346028377     -0.40703667033055     -1.62194259242685
  H          -4.15911250512589     -0.25049392130071      2.19277704711792
  H          -3.45425132662185     -2.15324018575032      0.23209441953165
  H          -1.56001235034859     -1.56263716961159      1.64116165942406
  H          -1.87110424198541      0.17434010223716      1.42062908967571
  H          -4.34847492026245      1.50548241460114      0.88471642649052
  H          -2.87496887011437      1.58498737591276     -0.09018986425187
  H          -4.44795213108585      1.86257095733461     -0.83557791315206
  H          -6.09198657050558     -0.38898621240450      0.32110625657460
  H          -5.96344459297824     -0.02540286900497     -1.41180605195717
  H          -5.62551942651524     -1.65768913986340     -0.82114543484518
  H           4.17777162181270     -2.86956868713127     -0.24834837855743
  H           3.48546810039060      2.57674977181843      0.65728019730959
  H           2.08011015411974     -4.54441869962127     -0.64929395123016
  H           1.76420569077538      4.34950694597860      0.90301770575459
  H           6.12093351380368      0.38101552836682     -0.62462790643220
  H           5.02931024279771     -0.81097001508047     -1.37366754369450
  H           4.75025325659408      0.92952458568344     -1.62655668053390
