44
Coordinates from ORCA-job 10237 E -1278.292500302967
  O           0.29185892295348      1.10290462268392      0.77007197460782
  O          -4.15515668908638      2.44240045447828     -0.78638047805672
  O          -5.76295126549400      1.01941652018275      0.05806093222358
  O           4.62421505866870      1.92756293114432     -0.18196030160416
  O           5.87345759346716      0.00421194645270     -0.47409958178064
  O           1.53206339031933      2.96448709797092      0.50565970262457
  N          -0.32869206691131     -2.37347976199172     -0.36183378913722
  C          -0.49472272566442     -0.92261764654560     -0.36936021773211
  C           0.45446085809068     -0.32832228917097      0.70031145325075
  C          -1.93870054071784     -0.46537519068022     -0.21668457930369
  C          -1.08550722823891     -3.00450454749976      0.71570135368571
  C          -2.91551569933318     -1.33248019936107      0.27540503656625
  C          -2.58974426067853     -2.76736969124581      0.61435766785939
  C           1.91563415799416     -0.52359141337326      0.39628001209076
  C           2.49354244238407      0.74637157639756      0.28637687889656
  C          -2.27676871739420      0.84657029029207     -0.60253852709619
  C          -0.56727509255025     -2.97482611543552     -1.66503356181880
  C          -4.24858604261080     -0.90058855253082      0.41188132958842
  C           1.46380913641896      1.76913206441125      0.51674931381444
  C          -3.57804077228858      1.24097845364683     -0.45465837802287
  C           2.65350869582110     -1.67992347255148      0.22806909002955
  C          -4.54738528412948      0.38516924820020      0.04880060223693
  C           3.83685623356740      0.83603465123896      0.00013789834647
  C           4.57752750019865     -0.32563112565723     -0.17028944604400
  C           4.02327299108765     -1.58201812138492     -0.06558912232478
  C          -5.47509800645482      2.38935430456877     -0.24478643887901
  C           5.96018070336564      1.42438642336173     -0.32233820325307
  H          -0.12258343248493     -0.55832369918293     -1.33033605206647
  H           0.18535957129110     -0.72093351534505      1.68264499629955
  H          -0.86268430812137     -4.07335147103764      0.71059245966508
  H          -0.71933493057647     -2.61310239150474      1.66750135606123
  H          -3.01810744794307     -3.42052017512135     -0.15382556353574
  H          -3.07165743464864     -3.05090805790125      1.55372661021028
  H          -1.53090988668354      1.52519469469091     -0.98865927504298
  H          -0.41143377042983     -4.05280737180698     -1.59655054119494
  H          -1.57781866667922     -2.79867757192430     -2.06172203301849
  H           0.15048270175738     -2.57494405837862     -2.38283998101826
  H          -5.01280175147305     -1.56907532235391      0.78618192826503
  H           2.17833497199260     -2.64536571626254      0.30486497705367
  H           4.63063872555712     -2.46490219328938     -0.20921028135599
  H          -5.51588225067230      2.98004796776388      0.67810510222088
  H          -6.18741216798959      2.75396212061512     -0.98363347086046
  H           6.41732520501514      1.85971038427384     -1.21040544416133
  H           6.53022257930441      1.66317791916308      0.58136459171103
