31
Coordinates from ORCA-job 10248 E -692.426994752345
  O           2.63386077507363      0.21997228776474     -0.40389632595059
  O           0.80954438952016      2.19385004006730     -0.41770066069158
  O           1.86132641267463     -2.38438582120262      0.22841302780241
  C          -1.36106339040120     -0.67811066759125      0.39673842995976
  C          -2.81213930853624     -0.99139078757476      0.69938731081123
  C          -0.40117724649258     -1.67797545349311      0.40482459624543
  C          -0.98108125711142      0.63505462753671      0.11338393850128
  C           0.34937268720281      0.94396432503106     -0.14412945119037
  C           0.93538526872216     -1.37700980612937      0.14955062761429
  C           1.32380297847333     -0.06828549356310     -0.12405162635047
  C          -3.75514593083263     -0.47570646329635     -0.34752489814896
  C           3.36404816793884      0.76170475633591      0.69790817071981
  C          -0.12975159548213      3.25386588467332     -0.46757023975700
  C           2.48278002748137     -2.74569380817846     -1.00729272031485
  C          -4.73187852707571      0.39552108022886     -0.12862815428286
  H          -2.92127373310411     -2.07638422067649      0.78474105107854
  H          -3.08709911046822     -0.56941868037126      1.67115799936478
  H          -0.66354404975098     -2.70566379314871      0.62000332771217
  H          -1.73830246102928      1.40453076630340      0.08983748680339
  H          -3.59025923533740     -0.85157058565355     -1.35397721860204
  H           2.93142402449701      1.71137071160997      1.02031770132591
  H           3.37602414391979      0.05612248464828      1.53308494161969
  H           4.38004761593277      0.92625019503945      0.34349944482576
  H          -0.62983456790613      3.39019997721900      0.49598549669348
  H           0.44092768388742      4.14749247228354     -0.70917579906817
  H          -0.88262809225330      3.08211572652180     -1.24209317886037
  H           3.17048442578324     -3.55691469457024     -0.77554941456523
  H           1.73147058383377     -3.09869435993922     -1.72057541225972
  H           3.03002787196532     -1.90484823355385     -1.43408705384263
  H          -5.38180196506442      0.73372925700042     -0.92576856284112
  H          -4.91992558606049      0.79734127667858      0.86126016564801
