23
Coordinates from ORCA-job 10254 E -463.445152569059
  O           3.05320712859736      0.93517079599953     -0.19111999093963
  C           0.12872583070739     -1.20900368772374     -0.13483997572759
  C           0.12900720067005      1.23641939947983     -0.04809257369799
  C           0.83647777708462      0.01417606032636     -0.12238875361942
  C          -1.97108416151716      0.00451285664435      0.00630914941045
  C          -1.25775230441668     -1.18804418442283     -0.07131694887138
  C          -1.25893688332406      1.19935595549807      0.01335097348245
  C           0.81576621867512     -2.55168710954015     -0.21815927124032
  C           0.81005733442495      2.57582237972044     -0.03572787980226
  C          -3.47002854903071      0.00017891079392      0.10776716505258
  C           2.30655123148649     -0.02211595501545     -0.19150693266661
  H          -1.79842306134907     -2.12742358662478     -0.08475283449308
  H          -1.80159175429031      2.13623574321495      0.06647575070649
  H           1.48707558456530     -2.72275936930153      0.62545191541084
  H           0.07241326051785     -3.34800947938230     -0.21454933968646
  H           1.40660899088449     -2.65541833680589     -1.13015191245758
  H           1.49657879997164      2.66717829516190      0.80627198248236
  H           1.41807742292672      2.72337055281709     -0.92858493665129
  H           0.06603128206340      3.37052355108769      0.02362602419115
  H          -3.78370605683978     -0.03421198129499      1.15531674573810
  H          -3.90082625864306      0.90010893434384     -0.33241755279487
  H          -3.90029666113332     -0.86918938161393     -0.39067836611019
  H           2.74142062796876     -1.03574636336239     -0.24769243771571
