24
Coordinates from ORCA-job 10297 E -480.689853251377
  O          -1.56887752166691     -0.94209367174223     -1.39607243923170
  N          -3.38197864180508      0.50610598824668      0.06107348743510
  C          -1.11122014753111      0.20649844091975     -0.70915358278164
  C          -1.99302575784689      0.45566220637339      0.54061815834316
  C           0.34875817641989      0.07031067291717     -0.36360710582280
  C          -1.86087939736391     -0.64193374564847      1.58668331084513
  C           1.08146147508565      1.20346250427213     -0.01339795199884
  C           0.97898098280056     -1.17056441238828     -0.34954372286250
  C           2.41466788870610      1.09954772421574      0.36026922429179
  C           2.31535631438766     -1.27580884098707      0.01868905241135
  C           3.03652680250830     -0.14405099143684      0.37893348153163
  H          -2.53565941491661     -0.91385778799070     -1.30887812569127
  H          -4.04050081378142      0.42998034301496      0.82584149831461
  H          -3.57416750101034      1.37236344256643     -0.42913963852662
  H          -1.22425255497741      1.09037594231408     -1.35722021910163
  H          -1.66950078141604      1.40625029749354      0.98428614271694
  H          -2.52656862174025     -0.44526034712590      2.43046999176069
  H          -2.11940967385470     -1.61232071400998      1.16167277475295
  H          -0.84151144592312     -0.69335649284157      1.96617357803373
  H           0.60713623597633      2.17811893122290     -0.04047277431599
  H           0.41412582873518     -2.04604617964753     -0.63570017686222
  H           2.97038408356736      1.98922306712015      0.62868788966880
  H           2.79517443295845     -2.24660151099162      0.02178604025589
  H           4.07745005268831     -0.22789686586673      0.66425110683344
