25
Coordinates from ORCA-job 10313185 E -443.789226941688
  O           2.31630319336652      0.89039984818154     -0.95899564479327
  N          -1.20991486835912     -1.28699210836217      0.04329680878044
  C          -0.18574754980527     -0.26760752703963     -0.20060813910808
  C          -0.59162906032925      1.02210275287150      0.51506729521217
  C          -1.98215978039443      1.48349794881120      0.07744556105657
  C          -3.00554795015641      0.35998743735858      0.24341725081929
  C          -2.52589092993612     -0.90302075756538     -0.46308220364533
  C           1.15617044579142     -0.79325034745037      0.29001471682766
  C           2.35868008961772      0.05132780114516     -0.08837943881744
  C           3.62920385467668     -0.22664872104471      0.68330015863402
  H          -0.92457301362710     -2.16631705170163     -0.37192772141153
  H          -0.09310968732320     -0.03870594948676     -1.27423278859971
  H          -0.59209145734096      0.83010780924038      1.59356757532736
  H           0.14828687998459      1.79697874602522      0.31104703299696
  H          -2.28438723304993      2.36618634198411      0.64612873542218
  H          -1.94429653263836      1.78565108562687     -0.97499959602517
  H          -3.14122977285828      0.13859184623022      1.30622184738822
  H          -3.97726734118143      0.66036225501302     -0.15668004936780
  H          -2.51093958655288     -0.71647534674699     -1.55156726150074
  H          -3.21775934403612     -1.72849050199585     -0.28322319483991
  H           1.13279116343919     -0.93806599526066      1.37437546073671
  H           1.34515811090651     -1.79039224230531     -0.13145477565139
  H           3.51886705789661      0.16028744940644      1.70063656512846
  H           3.81099726038613     -1.30032598411401      0.76922519672009
  H           4.47416905152350      0.26294421117922      0.20397760871023
