18
Coordinates from ORCA-job 10312 E -422.908271127855
  O           2.16462418686702      1.47893403599641     -1.13576188665091
  C           0.02636554389061     -0.23793458695362     -0.00476431723034
  C          -0.74962899307350     -0.56609154752850      1.11105400106839
  C          -0.60018228186016      0.34912578019932     -1.10796033665303
  C           1.47405267666157     -0.52884533088416     -0.00996042732626
  C          -2.11684833448619     -0.33203208839872      1.12013051424046
  C          -1.96926906427490      0.57737820317552     -1.09908166397944
  C          -2.73226513882308      0.23818168279485      0.01184435229264
  C           2.44034562117922      0.43176692316079     -0.60464807502831
  C           2.00433592421810     -1.64115726102696      0.51524870374824
  H          -0.27091647422494     -0.98746746678754      1.98584403125081
  H          -0.01420153331959      0.62561527766290     -1.97139162587573
  H          -2.70015114668916     -0.58634508421265      1.99587950057918
  H          -2.44118657383047      1.02614725900103     -1.96376764785816
  H          -3.79852944540944      0.42476539477821      0.01751702805439
  H           3.49631790456181      0.10124166574599     -0.51769739766816
  H           3.07678728796804     -1.79561584185995      0.51229632447319
  H           1.39502084064504     -2.42321101486293      0.94769692256305
