40
Coordinates from ORCA-job 10355691 E -848.282399418590
  O           3.11612444855600     -2.55027171411858      0.44391594941473
  O           4.72893870385668     -0.72711771848525      0.41028043559819
  C          -3.60011240176307      0.21865991406387     -0.08871167849400
  C          -3.91141713006219     -1.28455276584776     -0.14863162900551
  C          -2.09245407473425      0.46713491091345      0.01179460982930
  C          -3.08653203411947     -2.07212717797776      0.85095642495099
  C          -1.16516355370350     -0.52385715796931      0.24174099021069
  C          -1.60619487940313     -1.94589998007522      0.51713081016216
  C          -4.29992268952871      0.85107934831279      1.13037181918129
  C          -4.15959131044673      0.86258588545073     -1.37104979347278
  C           0.26296468487759     -0.22769318638707      0.22962850178549
  C          -1.65055423536943      1.81378424838952     -0.13321359249888
  C           0.67654218175738      1.14818767939037      0.09295970334506
  C          -0.33766982576158      2.13687507153435     -0.07572204463805
  C           1.13913099306963     -1.30971413150873      0.32775754292485
  C           1.98561499828754      1.64343004605039      0.10620756699451
  C           3.24325349019352      1.06179686175753      0.22035356074066
  C           2.54466037220234     -1.42904668890328      0.36202744795489
  C           3.48102876088888     -0.30021178811662      0.32929013250426
  C           4.45745315285038      1.95771951595914      0.20872424899011
  H           4.58481143906139     -1.72503764537198      0.46152737495977
  H          -4.98207039972156     -1.43116349370934      0.01432038253341
  H          -3.69306197942982     -1.65463378992695     -1.15603509349336
  H          -3.26916995897672     -1.70416788245905      1.86413182723325
  H          -3.37308462747957     -3.12581091135428      0.84651600347342
  H          -1.02090410537225     -2.35171374775473      1.34392837479899
  H          -1.37628902725112     -2.57524486822647     -0.35103585894480
  H          -3.97015681871193      0.39328273443412      2.06331991701320
  H          -4.09081093123534      1.91950806119055      1.19666798758660
  H          -5.38189643911655      0.72434802266551      1.04889610164350
  H          -5.21227212426769      0.59369479004803     -1.48363813327057
  H          -4.09975072349666      1.95064284481251     -1.35410069561155
  H          -3.62210601453470      0.50660337230162     -2.25170098953928
  H          -2.37931771612158      2.59798199393436     -0.28026256713455
  H          -0.02948283673304      3.17043924972304     -0.17123685366816
  H           0.69302672565869     -2.29050331407189      0.38279299164085
  H           2.02534756326534      2.72295464640822      0.00315820317915
  H           5.04041930940807      1.83299136107714      1.12337842519165
  H           5.12148834414452      1.70200383791062     -0.61937882161739
  H           4.17064966926265      3.00409656593640      0.11714241754790
