25
Coordinates from ORCA-job 10364 E -464.653667219514
  O          -1.88110014942932      2.02061749515314     -0.01033858349010
  C           2.42050948456757     -0.27892815193340      0.01458467097368
  C           0.90641781463953     -0.31949468520811      0.00275096151628
  C           2.95980458200472      0.38540789967880      1.28721171587271
  C           2.97992730840909      0.40071803720787     -1.24110031384706
  C           0.15931587137426      0.85529915809551      0.00107014308116
  C           0.22587619535041     -1.53455161633782     -0.00611358987220
  C          -1.92052505377626     -0.39967019003979     -0.01823418331237
  C          -1.22782770387101      0.81707862493832     -0.00923457253419
  C          -1.16269800223183     -1.56571576432870     -0.01638144453290
  C          -3.42400333992104     -0.42936684875937     -0.02957400416883
  H          -2.83304927608300      1.87507471249268     -0.01626222280537
  H           2.76519015773075     -1.31739332582963      0.01105606451688
  H           2.58215972596015     -0.11417274679688      2.18080755922194
  H           4.05134455849569      0.34849802935533      1.30805664415457
  H           2.66007327805812      1.43432702837849      1.33915127199507
  H           4.07163518959979      0.36339467121200     -1.24522073399746
  H           2.61620478048517     -0.08755691414946     -2.14663899849271
  H           2.68164748184204      1.45041251558461     -1.28489554945914
  H           0.63915974248927      1.82543618302978      0.00774142314588
  H           0.78481753315038     -2.46216388386756     -0.00499502206442
  H          -1.67555155313549     -2.52058749077739     -0.02322013055349
  H          -3.85121337725739      0.06029482150275      0.85257337656687
  H          -3.83791759633665      0.06588776210833     -0.91490671679140
  H          -3.78860365211499     -1.45573032070949     -0.03550376512341
