42
Coordinates from ORCA-job 10398656 E -662.360860247361
  O          -0.58978265790135     -3.30517570727312      0.71123098042065
  C          -0.75944090703594     -0.91787693464438      0.24782875814153
  C          -0.04618319944700      0.34360199825130     -0.27196231885743
  C           1.32154478816391      0.53442774931181      0.42656598807136
  C           0.07692243799699     -2.20092472387557      0.07229431878109
  C           2.16425552190341     -0.73532606650362      0.24583945254622
  C           1.44124708673684     -1.98774082095741      0.73463336510833
  C          -2.16483479377230     -1.00270186485560     -0.34251862449522
  C           2.07544916714283      1.81744658898296      0.00229111110641
  C          -0.95796311083439      1.53888146405402     -0.14862524274009
  C          -3.01105885344872      0.17240261603084      0.13708495068443
  C           0.21885493094137     -2.63776173907563     -1.38119991982925
  C          -2.27519523259060      1.48440304287586      0.05168108668413
  C           3.37056249811826      2.00851396305586      0.79751760466310
  C           2.35144058219805      1.90568150319401     -1.50110242705678
  C          -3.11258489372016      2.72071448023788      0.19973321159082
  H          -0.64526118002216     -3.11582528926002      1.65531181980206
  H          -0.87166308788442     -0.78617314366211      1.33480010863497
  H           0.16100135867761      0.19142253687778     -1.33915165548772
  H           1.11564621408269      0.64238031587691      1.50021944538597
  H           2.42752670310232     -0.85429147295833     -0.80871292794852
  H           3.10664496782794     -0.64041542945312      0.78695520930098
  H           1.27914219183852     -1.90012481478621      1.81626909118661
  H           2.05598731386454     -2.87762401460440      0.57981035900810
  H          -2.10142078256271     -0.97468946409675     -1.43422688484965
  H          -2.62952134947416     -1.95110980575406     -0.07078840407604
  H           1.43146770718066      2.66076548109555      0.26416001655639
  H          -0.50050434595486      2.51762114677257     -0.23687555947545
  H          -3.93447052802337      0.23960460048363     -0.44803801364961
  H          -3.33453747065492      0.01065753918761      1.17394600163675
  H           0.83650024978809     -3.53518683578692     -1.43182900853597
  H          -0.75643522214613     -2.87538724841909     -1.80382038403751
  H           0.68175276873395     -1.86512871395360     -1.99333799423939
  H           3.19727788508204      1.89986147252376      1.87099859979532
  H           4.13704767534066      1.28762081167165      0.50660940437283
  H           3.78050549101530      3.00580194244523      0.62446424131744
  H           2.99739984666180      1.09233198507036     -1.83888005692922
  H           1.43352462251622      1.87135394493885     -2.08940283419759
  H           2.85881725010747      2.84323591856561     -1.73826906609329
  H          -3.65186549899533      2.71347776498228      1.15284326428628
  H          -2.50771250737052      3.62700941323022      0.15760630858752
  H          -3.87200163718244      2.77646381020338     -0.58689537517055
