83
Coordinates from ORCA-job 104361 E -1547.995234599663
  O          -3.21901432041626      1.37085868502063     -2.32760486620352
  O           6.94387756598709     -1.41288488627440     -0.43134794329816
  O           4.97723757680961      0.46177034392913     -2.77979842312216
  O          -4.39896120865757      2.71957729145164      1.42837288014416
  O          -3.45506772540134      1.00128808484777      2.43018746109548
  C           0.65446005580830      0.84918167037304      0.25220874705039
  C           1.35336379940788     -0.51309057159131      0.54491939459259
  C           2.88621885028583     -0.48174781285155      0.89628580914205
  C          -0.74273754263087      0.54451002154117     -0.45492012253902
  C           3.58048860238068      0.34610880911326     -0.22322186906696
  C           1.53409387036081      1.70285451668157     -0.68137162334186
  C          -1.53844804198648     -0.46278885491044      0.36409928895368
  C           3.00183478045425      1.76072767536592     -0.27055865211228
  C           5.13266888603283      0.27216572322478     -0.29031952513762
  C          -3.04733620903006     -0.56695821740049      0.20491556826057
  C           0.51427069515460     -1.33298867621425      1.52504580399377
  C          -1.55275996144124      1.86110747180067     -0.56956114405075
  C           3.40473788947894     -1.93533253833770      0.81280015308714
  C          -3.77595869160736      0.78842308293736      0.02561908304694
  C          -3.01745757442618      1.72599239070137     -0.96239339678165
  C           0.41650400791659      1.62730071931033      1.56312682395813
  C           5.52973432298546     -1.22172166648336     -0.33760462854273
  C          -0.94746708750317     -1.28149697253992      1.22919269018660
  C           3.18420728113285      0.04129315353658      2.31605224237062
  C           4.92768612638594     -2.03999270006367      0.79212247766401
  C          -0.53413500505153     -0.04599219543207     -1.87598173248702
  C          -3.52788787290538     -1.57259246142310     -0.85591823734817
  C          -5.22704325203711      0.54351371290086     -0.47680078659522
  C          -5.00026176090221     -1.98804572945983     -0.60787665283914
  C           5.62928354003558      0.92774193890903     -1.60092819745392
  C           5.86010144279118      1.01541849535797      0.83861506374950
  C          -5.77224560204084     -0.79453895158500      0.00956679874215
  C          -3.84108541497234      1.47850970129852      1.40070344290569
  C          -5.05498907299070     -3.17616742877191      0.35726725555139
  C          -5.63634328133320     -2.38842959635047     -1.94288993720706
  H          -2.51320629919672      0.78421602027274     -2.61117721763145
  H           7.33470674868890     -1.23253771726402      0.43088480995960
  H           5.43699334188393     -0.32152330562255     -3.09592479872056
  H          -4.70733493976097      2.97673225918362      0.55021586909869
  H           1.33645663947524     -1.06565540815496     -0.39660090180234
  H           3.26422511234667     -0.12874478544299     -1.15876218405687
  H           1.51037369800797      1.29784629177545     -1.69352267258855
  H           1.12584056348411      2.71429545468366     -0.74026071830032
  H           3.11568505280362      2.26902901538061      0.68884410118340
  H           3.53354657109138      2.36887813270504     -1.00205895616704
  H          -3.38886548227856     -0.95895649636528      1.16152976537834
  H           0.84031696112127     -2.37627473451650      1.51772012276699
  H           0.66212951698248     -0.99265484528594      2.55530713135009
  H          -1.54853937255426      2.36665402252500      0.39403031866556
  H          -1.06697693617421      2.53283095105530     -1.27927635589768
  H           3.01575766428212     -2.52186007715132      1.64715514311385
  H           3.01404440899478     -2.39596530715801     -0.10088774794027
  H          -3.45817077388123      2.72571713247359     -0.89864920734209
  H          -0.40411141540901      1.20804127143177      2.14378910362227
  H           1.29995033292993      1.62353359565052      2.19148058561693
  H           0.18438805802995      2.67293107821232      1.36313721471747
  H           5.14254462359607     -1.62657746308928     -1.27744321259966
  H          -1.57074559250850     -1.95665053826104      1.80894035020146
  H           2.42329626413845     -0.28115563056987      3.02430594734738
  H           4.13092691146192     -0.34622784359680      2.68509556145376
  H           3.24592134813227      1.12506110492589      2.37022635343315
  H           5.35200338729944     -1.71573150755675      1.74752165689719
  H           5.22759864698722     -3.08235106155564      0.66302660580026
  H           0.29479485908685     -0.74935670406389     -1.90415326561034
  H          -1.40392113105181     -0.62064880126896     -2.19429363622971
  H          -0.33330644650869      0.72845211656022     -2.61807682164699
  H          -3.44292957946083     -1.15187006863887     -1.85763357973707
  H          -2.88910398668436     -2.45729132660181     -0.82944951456731
  H          -5.88696641109412      1.35433508929918     -0.15926454285526
  H          -5.21276145267355      0.56563063916641     -1.56568108349094
  H           6.70710604665519      0.76704253991461     -1.67243740105430
  H           5.45854337700731      2.00339439862745     -1.56458789450761
  H           5.78554149048368      0.51201348401120      1.79945207802455
  H           6.92079672846056      1.12393560707349      0.60088945008720
  H           5.45583934562073      2.01983990373000      0.96567341652526
  H          -5.71183413670456     -0.83616629513597      1.10047339611398
  H          -6.83252048975034     -0.87993970093525     -0.24011545629887
  H          -4.53056333505782     -2.95265957940610      1.28909313280181
  H          -6.08866437516048     -3.42441152190404      0.61049388607923
  H          -4.59423469744504     -4.06211768141508     -0.08597880640776
  H          -6.65054499033070     -2.76780668483572     -1.79661023432119
  H          -5.68824753081462     -1.53748053641379     -2.62607470837307
  H          -5.05176999262626     -3.17149671505973     -2.43229132845880
