13
Coordinates from ORCA-job 10442 E -269.540081271034
  O           2.45713048663146      0.24096545377933     -0.00401843591741
  O          -2.45506698117266      0.24133074497806     -0.00506566626808
  C           0.00103473076679      0.30379049918132      0.05617937188838
  C           1.26848746146032     -0.54128414937211      0.02348426978271
  C          -1.26652802364746     -0.54106775102499      0.02265559398689
  H           2.48976663603197      0.77867598542650      0.79475172052630
  H          -2.48738095095303      0.77959646856117      0.79335050027120
  H           0.00078163122008      0.91500375176724      0.96864464916268
  H           0.00143401262719      0.99142246392099     -0.79258074960496
  H           1.29651836181149     -1.14079742911164     -0.88846861385017
  H           1.28277315777446     -1.23788993255762      0.87238005308249
  H          -1.28124806671802     -1.23797191281868      0.87130849837163
  H          -1.29426445583259     -1.14030119272958     -0.88949219143168
