14
Coordinates from ORCA-job 10451 E -953.531047231148
  S          -1.53251388206738     -0.84516838089765     -0.27392439213512
  S           1.53107032805168     -0.84566405730374     -0.28855293327443
  C          -0.00028657845476      1.51818499693951     -0.26611749312344
  C          -1.27434059135580      0.87311595590067      0.27161239458889
  C           1.27871043239102      0.87282031428517      0.25936166668761
  C           0.00229197210539     -1.56489211516480      0.37220475476879
  H          -0.00551596488289      1.48865756994425     -1.35742448991806
  H           0.00128079760282      2.57161082211781      0.03632742036158
  H          -2.15445575126807      1.41333598333453     -0.07799558752060
  H          -1.28533485296959      0.90145649738362      1.36498332258755
  H           1.30026295457348      0.90117244125400      1.35257147722612
  H           2.15561466137208      1.41263947527948     -0.09879618797911
  H           0.00748331777203     -1.49962400180041      1.46162471337114
  H           0.00079115712998     -2.61615150127242      0.08947433435908
