60
Coordinates from ORCA-job 10457774 E -1719.422894145609
  O          -2.60479452924110     -0.98783497587031      0.13751317551683
  O           1.03564281420333     -1.06581234746614     -0.25554081906081
  O          -4.25902787991060     -2.34270226749031     -0.63912137036495
  O          -0.21683901565166     -3.50506146615448     -0.15584108957568
  O          -2.31322134937082     -4.13780095344579     -1.73710201524308
  O          -1.89583993676122      0.95103005491757      2.11779228164887
  O           1.32711426030110      0.89930466279611     -1.34220310521104
  O          -3.93238344839124      2.59771679219686     -1.21918593944849
  O          -3.57841238371153      3.37924112298925      1.35087073099828
  O           8.29088264274226      3.14646083327022     -0.56492259100310
  O           9.46575333885408      1.27736516728052      0.96620163741214
  C          -0.34748464170815     -1.12365153463852     -0.65573425371774
  C          -0.60093501626512     -2.54299315310425     -1.14143463209945
  C          -1.25166556878982     -0.78091608782504      0.52790886509682
  C          -2.08278861919431     -2.78254298376721     -1.41470662678970
  C          -2.94226294832260     -2.32885831828964     -0.22971407149729
  C          -1.14315188828857      0.67523130328372      0.94359879004309
  C          -5.26594645130188     -2.48912549573792      0.36039241287868
  C          -6.33795078552031     -1.41235514991459      0.18500877170012
  C           1.77859694413188      0.00451298744954     -0.66961313429071
  C          -5.78890670852822     -0.04477872722882      0.48463255830807
  C           3.15262985681080     -0.10924845740420     -0.17268142688010
  C          -5.23853995091259      0.73185332923635     -0.52900826323309
  C          -5.68883770039205      0.39064499526911      1.80668750080577
  C           4.05712060062207      0.83688020696454     -0.46415465742637
  C          -4.53538736668760      1.89039945899148     -0.22789891911306
  C          -4.99703766287776      1.55581559020257      2.11427158289572
  C          -4.38718066167711      2.28276279972979      1.10290423615083
  C           5.45135934872147      0.88874485626922     -0.05732467293435
  C           6.22905769578376      1.97393948313022     -0.48585577052901
  C           6.05232950536417     -0.09234305408265      0.74156419083850
  C           7.56241648434393      2.08372648773163     -0.13440365423009
  C           7.38653557516108      0.01179246578350      1.09730628273528
  C           8.14361592938593      1.09262865100699      0.66408297071813
  H           0.71164736747209     -3.35745142154823      0.05685662844983
  H          -1.76427080186005     -4.66601669954571     -1.14208183397395
  H          -2.79234593470146      0.61531460633610      1.97046029311792
  H          -3.46792420999634      3.33612958540605     -0.79675804158551
  H          -2.83890661579150      3.06974927033495      1.89743572025381
  H           9.19259620424275      3.06061729364595     -0.22754365776313
  H           9.79122426416732      0.55533032979373      1.51453375511457
  H          -0.51850173022561     -0.41342401577811     -1.46440314449921
  H          -0.03542285809145     -2.71678697061263     -2.06358789274099
  H          -0.99763175165652     -1.42480394296064      1.37893075697253
  H          -2.39358994352472     -2.18639672430899     -2.27516051976387
  H          -2.78008692189297     -2.98787185946759      0.63564805141535
  H          -1.47190455133022      1.30286521128382      0.10801275956558
  H          -0.10812764922698      0.92294678129123      1.17371274951004
  H          -5.70855104642146     -3.48426596947329      0.25053747151904
  H          -4.82259947438973     -2.41236283313176      1.35693514459465
  H          -6.72086410361101     -1.46652955488676     -0.83587039847767
  H          -7.16599369654298     -1.65163863799952      0.85819890089387
  H           3.38276224886321     -0.97722555946165      0.42943488677783
  H          -5.27942940242816      0.40393970950031     -1.55895933396946
  H          -6.13191368431055     -0.19465558537973      2.60328344059864
  H           3.71016366588334      1.66343486748942     -1.07670245519310
  H          -4.89591960173655      1.89281608771796      3.13855673492131
  H           5.79407636447254      2.74889913291981     -1.10381413217156
  H           5.48005954369811     -0.94028336327789      1.08999312580413
  H           7.84789183601724     -0.74942901396614      1.71664201553031
