18
Coordinates from ORCA-job 1045 E -269.095716848461
  N           3.12028968501763      0.18546483785668     -0.05116522935126
  N          -3.11919294034444     -0.18520160421390     -0.05319578082371
  C           0.66860738846344      0.36863335221393     -0.01689402625291
  C          -0.66755255409425     -0.36808833519838     -0.01721947785343
  C           1.86686619325826     -0.57139227246291     -0.01557670815494
  C          -1.86589040426329      0.57181827062309     -0.01695565643004
  H           3.22095768417423      0.74184360670543      0.79093363230987
  H           3.91792772819766     -0.43813494144843     -0.08997844276965
  H          -3.22008990235184     -0.74181139027678      0.78872277863424
  H          -3.91688896393763      0.43831698801073     -0.09214440433015
  H           0.73994287647876      1.02119948953330     -0.89183440199814
  H           0.72699288707430      1.02210472246032      0.86217703258236
  H          -0.73827515140817     -1.02092007112008     -0.89202448729537
  H          -0.72644970239939     -1.02139648456298      0.86194771375642
  H           1.83186936233206     -1.19942875336848     -0.91038487568962
  H           1.78832486417658     -1.24990577145802      0.84832707434537
  H          -1.83031228201075      1.19957575634313     -0.91194013673560
  H          -1.78803176836317      1.25055960036334      0.84683139605655
