58
Coordinates from ORCA-job 10459879 E -1906.171936868952
  O          -1.02662450827874     -2.33963650608056     -1.30957580852751
  O           3.42992123800015     -1.41057457443018     -0.15419776079928
  O          -3.63651899245640     -1.66045737245989     -1.41074219046650
  O           2.12165883329795     -3.41408388111531      1.15386284378329
  O           0.89962875712190     -2.62022013118746     -3.20511997244547
  O           5.37912805613373      0.29370481928458      0.70584042201515
  O          -5.91149237115378      2.77545750251825     -0.10768153513402
  O          -3.50597742081357     -1.66120782105490      2.17948230887605
  O          -4.27574985710453      3.73434743455409      1.03920624065968
  O          -2.60236318730153     -3.46885645530317      3.09155082749557
  C           0.04416112734677      1.45856215722255     -0.65600053210085
  C           0.58115478925280      1.21192582654307      0.84375794867020
  C          -1.42455330546763      1.15248508383859     -0.70805810538172
  C           0.37913241851154     -0.21213103901027      1.26792970147282
  C           0.83958772238813      0.69461739431404     -1.67245054514599
  C           2.00707136930274      1.66474747946886      0.96452992368605
  C          -1.84719154905930     -0.12580903968840     -1.09016447492102
  C           1.39473407614575     -1.15053845940793      1.04621920848027
  C           0.44478308071302     -0.60844823898711     -2.01795306036089
  C           3.04103155438981      0.73792886759834      0.78262584199491
  C          -0.82136217176031     -1.15540515882584     -1.46806968975754
  C           2.70291143073679     -0.68792650648548      0.49261352108599
  C          -2.33632482554877      2.09968615347413     -0.26160141127899
  C          -0.85292732016400     -0.60723321719753      1.77275929389986
  C           2.00781322622493      1.24064967531339     -2.18778755890029
  C           2.28474298280234      3.00922453180523      1.18215988406446
  C          -3.22114909365106     -0.43260558641833     -1.03404668679957
  C           1.14145650688525     -2.50463797057787      1.34035695048986
  C           1.27257313267739     -1.36564810358059     -2.86817392408318
  C           4.37292075862252      1.18829014011709      0.84613942623757
  C          -3.68999101789487      1.79487515989468     -0.20252091086310
  C          -1.10540285023760     -1.95025377708691      2.03071353843143
  C           2.80640940892509      0.48688045943691     -3.03615221399320
  C           3.60212854164542      3.44157019867855      1.23713735374955
  C          -4.12813636253476      0.52764057778919     -0.58595165177524
  C          -0.10394685508234     -2.88793676725237      1.82763049688070
  C           2.44658664362806     -0.80654868132562     -3.36919239409576
  C           4.64002506290881      2.53746307262588      1.07412126586794
  C          -4.62227573992876      2.85201197521371      0.30476397869374
  C          -2.44080782041913     -2.44261349263434      2.49148490786831
  H          -4.59228542869163     -1.73444444270950     -1.30205630106112
  H           1.79600040523392     -4.28648504031274      1.40639959584863
  H           1.56702354892140     -3.00267800453774     -3.78704604117728
  H           6.22202721516200      0.73998985860686      0.84951584506385
  H          -6.01007309655408      2.10662476791102     -0.79723147218897
  H          -3.23891248837848     -0.94068929312407      1.59203745290517
  H           0.18797119106506      2.52623227483372     -0.82240749782183
  H          -0.04340126937437      1.85601742414448      1.46374393972043
  H          -2.00823136040489      3.07959236258195      0.05742589000189
  H          -1.60436231200954      0.14881631033317      1.95987516245883
  H           2.30541896102493      2.24045538046729     -1.90263219588338
  H           1.47268022123256      3.71286656776372      1.31619940216076
  H           3.72403848176708      0.90419083655539     -3.42932642243413
  H           3.82522950279838      4.48524739360372      1.41752442417665
  H          -5.17406866301091      0.24978518024759     -0.50509262756018
  H          -0.31444568276312     -3.92951411289536      2.03713158376134
  H           3.08137203474246     -1.40125258767213     -4.01623618717989
  H           5.67016927043539      2.87253039462157      1.12759799163596
