43
Coordinates from ORCA-job 10467801 E -812.413351551055
  O          -1.92845682722318     -2.75823595003466      0.78047470931173
  O           8.06626707616762     -0.49827475854492     -0.16076196610443
  C          -4.91751321178437      0.41367313129114      0.17922112400488
  C          -3.96879881659591     -0.74644289242751     -0.11180082113512
  C          -6.36770116081212      0.11632105305484     -0.19411507705881
  C          -2.51880362187941     -0.43644349094471      0.25054746174306
  C          -7.32102784209153      1.27145351281495      0.10098807245341
  C          -1.56351504963283     -1.60693107202252      0.00756293467188
  C          -8.77164815396557      0.97614926691693     -0.27425329557754
  C          -9.71639764087158      2.13701482661012      0.02549067045715
  C          -0.14094003561403     -1.22378300314495      0.27594666791642
  C           0.82891952968696     -1.24705249317740     -0.64613005989095
  C           2.16769685785049     -0.87221752883957     -0.40677821147227
  C           3.32602022183367     -0.55527085529230     -0.23465034622872
  C           4.62029825508653     -0.19971218319087     -0.03194823447528
  C           7.17138050308279      0.48935074793125      0.36651028909854
  C           5.77468658022325      0.11772099024104      0.14656642073547
  C           7.49304152857754      1.79678551837952     -0.30592955140868
  C           7.84755087552191      2.88983143612133      0.35208155985158
  H          -1.92829797010660     -2.51318237933412      1.71394450795118
  H           7.70701572138931     -1.37024684970543      0.04207821645345
  H          -4.86357615082321      0.66705407609621      1.24436931230286
  H          -4.58047982128801      1.30575778677141     -0.36113165468704
  H          -4.29516047360929     -1.63615414320504      0.43250957736185
  H          -4.02380617540841     -1.00289621325613     -1.17567504923256
  H          -6.42204770520888     -0.13448851984945     -1.25960183084420
  H          -6.70327936175654     -0.77718859250429      0.34441271762626
  H          -2.16563023126615      0.42433178862297     -0.32591676974605
  H          -2.45098834611529     -0.14387513715546      1.30661627024940
  H          -7.26809590011825      1.52171027211413      1.16699618010481
  H          -6.98433119314279      2.16562803595130     -0.43645002064613
  H          -1.65615834219645     -1.93731576945306     -1.03006618659853
  H          -8.82353652520833      0.72695274660236     -1.33944924530413
  H          -9.10689223914004      0.08252583272607      0.26286366503389
  H          -9.70810159853379      2.38547631571423      1.08986608322732
  H          -9.42246008247247      3.03474649747160     -0.52437884049273
  H         -10.74496179492795      1.89857705034787     -0.25239921712384
  H           0.09400649343898     -0.90553118904431      1.28853751094378
  H           0.59157867451619     -1.56999848197564     -1.65708089291069
  H           7.33252892077107      0.60046413430349      1.44715891690862
  H           7.41125785218526      1.78614602900049     -1.38726628665411
  H           8.06309888281108      3.81598876472262     -0.16458320599884
  H           7.93306944829769      2.89891868918645      1.43278746386680
