53
Coordinates from ORCA-job 10465 E -818.625222955973
  O          10.21287610890145      0.54804145266186     -0.00481877999726
  O           9.13958722842317     -1.38871545101002     -0.04250864261631
  C          -1.12431004801320     -0.34071825107005     -0.01444471608028
  C          -2.41144453279976      0.47987872580185      0.00300117781657
  C           0.14199713026040      0.51164649576893      0.00355810631150
  C          -3.67777705344884     -0.37245950379756     -0.01504499284194
  C           1.42892040398129     -0.30923342697003     -0.01483533795209
  C          -4.96494850351030      0.44809516070347      0.00208470444768
  C           2.69506107909043      0.54335301300606      0.00353547895873
  C          -6.23129462919767     -0.40424242962366     -0.01529997784312
  C           3.98130445367183     -0.27834659491709     -0.01607263277099
  C          -7.51855324513866      0.41627416635171      0.00049731988799
  C           5.24712242048956      0.57464584028104      0.00279263278477
  C          -8.78494432866500     -0.43584690634601     -0.01581476814151
  C           6.52820166422439     -0.25462522282435     -0.01771203470370
  C         -10.07323212284565      0.38403764751823     -0.00151568917888
  C           7.78344207513831      0.60751063675407      0.00172768180319
  C         -11.33284752956795     -0.47799803754032     -0.01774577752301
  C           9.07090460825340     -0.19460138026921     -0.01779355631576
  H          10.00280472769640      1.49060226845844      0.01477353057377
  H          -1.11597071169036     -1.01861498205815      0.84673490949127
  H          -1.11607477963957     -0.98148151583995     -0.90360333529964
  H          -2.41966122221254      1.12070487888548      0.89218577781359
  H          -2.41965794817904      1.15777167461720     -0.85826227480323
  H           0.13343431242887      1.18996697387120     -0.85736577494928
  H           0.13414047030395      1.15191496723770      0.89315345921268
  H          -3.66945755288007     -1.01340131691551     -0.90410099261677
  H          -3.66958649118299     -1.05023910808924      0.84625848405507
  H           1.43759456973534     -0.98771814503271      0.84578448363025
  H           1.43707458879852     -0.94923022075589     -0.90445407567135
  H          -4.97304935997002      1.08943732375265      0.89089486204738
  H          -4.97327843566582      1.12554609606163     -0.85952117389078
  H           2.68614387078400      1.22234503937348     -0.85687789961120
  H           2.68743604587319      1.18270539914648      0.89381131145474
  H          -6.22275895014396     -1.04626520469944     -0.90358015639313
  H          -6.22332065923486     -1.08102445448136      0.84679716473021
  H           3.99125549488020     -0.95743411495652      0.84369207500866
  H           3.99017722247581     -0.91715306105385     -0.90618792999354
  H          -7.52667600323149      1.05891977784797      0.88838869308904
  H          -7.52668379993760      1.09245590727047     -0.86213007420610
  H           5.23699618512564      1.25435762715352     -0.85735581725038
  H           5.23849393109446      1.21334488128831      0.89383474436329
  H          -8.77698273666794     -1.07950481458472     -0.90316085916582
  H          -8.77788115902738     -1.11157145181914      0.84736689418024
  H           6.54897319766324     -0.93309224276625      0.83836024219386
  H           6.54760616663483     -0.89188359104573     -0.90494747523126
  H         -10.08034908262812      1.02663762428871      0.88535148118204
  H         -10.07945412628246      1.05836273685278     -0.86451467216444
  H           7.79386597210227      1.28803406807103     -0.85790919848502
  H           7.79524444730432      1.24638343582021      0.89276677380243
  H         -11.36756512886442     -1.13896730541501      0.85209166481365
  H         -12.23746716987047      0.13332516011515     -0.00733279679709
  H         -11.36648506483911     -1.10740224507786     -0.91072624115874
