41
Coordinates from ORCA-job 10466651 E -736.372897106105
  O           0.48194982012215      1.84512507332288     -1.43479763628240
  O          -1.90197486542653     -1.67423252625538      1.33557254870829
  C          -1.42323412762483      0.18839115905478     -0.09573074311808
  C          -2.78977704413657      0.84045279818940      0.19312018634519
  C          -0.23676715447948      0.88105909687111      0.62402060472613
  C           2.24302358525117      1.58388020813625      0.14342855120739
  C           0.80100032305413      1.45002887204809     -0.33508576320515
  C          -1.41630235803834     -1.28959434143387      0.29600363865166
  C           2.93275116399259      0.24214936775536      0.44462555967116
  C          -0.66469369782457     -2.24929273641187     -0.62645304261464
  C           2.94166870416933     -0.77702723344122     -0.71088012146965
  C          -2.80483699550508      2.31192608896102     -0.22548940702581
  C          -3.91272565698384      0.08897134545765     -0.52748830282079
  C           0.80931389110843     -2.08025229203612     -0.32394253547024
  C           2.30920896735752      2.50769899947831      1.36792461683062
  C           1.55926292202541     -1.25773944425802     -1.06171218450315
  C           1.28066498686052     -2.78057187000805      0.91752994007304
  H          -1.23809308582177      0.27220812457870     -1.16785563391947
  H          -2.96700867917605      0.76991507000148      1.27072106501689
  H          -0.60326240997062      1.72807376023068      1.21183277060808
  H           0.24133056072409      0.21959623477114      1.34491974497015
  H           2.76619094419587      2.06174235637084     -0.68869091605983
  H           3.96539217522372      0.46775123240787      0.72733948096637
  H           2.46954058239147     -0.21554978983453      1.32246848323931
  H          -1.00417840019026     -3.26326928798037     -0.41125957381277
  H          -0.87250839254199     -2.00171620293558     -1.66779041495758
  H           3.40535947254694     -0.32165220570941     -1.58887193892228
  H           3.58294933149071     -1.61375956036472     -0.42244734839823
  H          -2.05663623471280      2.90863821606230      0.29744066729869
  H          -2.60988958989544      2.41131281225913     -1.29559269826391
  H          -3.78087471550635      2.75360535674009     -0.01502180970952
  H          -3.98287349615430     -0.94884795827630     -0.20169958373815
  H          -4.87742256366781      0.56204190982261     -0.33491612955963
  H          -3.75021761293744      0.10117301361872     -1.60944339305635
  H           1.81242052339911      2.06115365636310      2.23157306318162
  H           3.34943561720047      2.69139687108553      1.64220046318895
  H           1.83959622519015      3.47164417531659      1.16443264865837
  H           1.10633747167980     -0.81400546643970     -1.94080672440498
  H           0.70187325721246     -2.46503681620916      1.79049368659552
  H           1.12197453577874     -3.85854314881830      0.82133520391471
  H           2.33542501961929     -2.60985891849102      1.12171897746047
