55
Coordinates from ORCA-job 10479460 E -1678.891385155900
  O           2.54776924470739      1.03091089540191     -0.48605694710878
  O           3.21836225638798     -1.15728027354675     -0.64290498656704
  O           6.25706257104523      2.22408051021110      0.82672748148666
  O           4.02254936769836      3.95039613293469      1.11287242192696
  O           5.57354892058601     -0.56456588124181      0.80820727494190
  O           0.25951789341153      2.82465448458848     -0.29184247960314
  O          -1.66653646734289     -0.58570529514089     -0.18547558319411
  O           3.70945968956119     -3.75374877293110     -0.53045771870024
  O          -4.91024510614497     -2.66177831709119      1.12440528666920
  O          -3.85524445524910      3.47995432978235     -0.64381452578811
  O          -6.32508148260661     -0.34236674390733      0.89348559107384
  C           4.93075751676446      1.71690809501243      0.88906255581122
  C           4.00961349209626      2.78083222043569      0.31010050344514
  C           4.78164630720230      0.40511976833230      0.14227254099828
  C           2.57494978340813      2.25050366166065      0.25250331056774
  C           3.31091289264159      0.01168360191168      0.11850054875273
  C           1.61925018488915      3.21789096526138     -0.42117458614813
  C           2.14524054737152     -1.98552027217255     -0.42496436801097
  C           0.85089132356390     -1.52141259583437     -0.26880530386887
  C           2.41360720351565     -3.35821811150436     -0.38848500699775
  C          -0.20703624888156     -2.41426972370391     -0.05859749919101
  C           1.35996128471956     -4.24709826644203     -0.20316759833839
  C           0.06511482188030     -3.78360481913359     -0.03811475049436
  C          -1.57007002241171     -1.90267686425906      0.12910194478057
  C          -2.63684394151174     -2.59559955515138      0.57167454698614
  C          -2.84995124183628      0.08272709152327     -0.05783445998561
  C          -4.01575911756740     -0.56631438203036      0.38606453223572
  C          -3.95849185148944     -2.00095233871883      0.73072085956254
  C          -5.17613314724659      0.23154969579949      0.47213156054759
  C          -2.79590722799348      1.42223757390917     -0.40176734914635
  C          -3.96009730737932      2.17331420599458     -0.30077580273839
  C          -5.14834217701929      1.58142411647241      0.13435993809035
  C          -5.01214654881272      4.29897328678766     -0.58483074656147
  H           6.85093590796478      1.53478052325514      1.14812776801797
  H           4.94752845387000      4.17437790961832      1.27544563635601
  H           5.44571650595225     -1.40933893631108      0.35687724476645
  H          -0.03955837384877      3.01876552829833      0.60314291524255
  H           3.75534314859595     -4.71591071270933     -0.48958073061126
  H          -7.02563701369923      0.32071064449711      0.89823922134275
  H           4.64598451212705      1.55103670553525      1.93745227778043
  H           4.34263092604298      3.01118711543489     -0.71068360688727
  H           5.10768057595223      0.53272714701306     -0.89669026257269
  H           2.23355421233178      2.06824787875397      1.28296036757378
  H           2.94230591513190     -0.18084975029319      1.13746126666771
  H           1.83188540418680      3.23274952208426     -1.49105121205372
  H           1.78884105863222      4.21926138405400     -0.01804281989454
  H           0.66664611760547     -0.45962999088501     -0.32396106722234
  H           1.55990534873765     -5.31269934318292     -0.18325188202699
  H          -0.73444605853352     -4.49832210470365      0.09222557122866
  H          -2.54447637598582     -3.63609903990276      0.84163037702262
  H          -1.87173434588532      1.86600613991274     -0.74415297152094
  H          -6.06025188963714      2.15661426440308      0.21526755239373
  H          -5.40539962526723      4.36088272799887      0.43405003455879
  H          -4.69392525545677      5.28680129907022     -0.90859704189153
  H          -5.79392710677476      3.93207066484890     -1.25593782370407
