79
Coordinates from ORCA-job 10481601 E -1694.855580532874
  O           1.96800930773078     -2.46952846772382     -1.65821918442813
  O          -0.20384445259798     -3.01969440323649     -0.12607980553324
  O           2.16967433921794      2.97227294393396     -0.37564002196387
  O           7.55720414733737      0.34330716611838      1.91346391242190
  O          -5.50803636600254      0.86190786027412     -2.08543202290940
  O          -8.56468613609079      0.29536161780649      2.43655055342624
  O          -9.69725902089102     -0.74233174734692      0.84210270326496
  C          -0.44152126604974      0.50286674423240     -0.38808955611623
  C           0.39988850249843     -0.64532395668998      0.24202025027449
  C           4.01689199589130      0.75571309643503     -0.30203841667065
  C          -1.88853643499714      0.18599544010861      0.09719551058332
  C           1.85804062990140     -0.57595089993737     -0.18045403331886
  C           4.62999213265896     -0.62318075051737      0.08553624322563
  C           2.48664655158100      0.62300482334237     -0.18286009175437
  C           0.16991517096258      1.81697651881071      0.06893072861096
  C          -1.93927559022388     -1.35273911722972      0.00652250215279
  C           2.56347924971502     -1.88008429799897     -0.50483060442574
  C          -0.50357177605140     -1.85427873322173     -0.01063614770353
  C           4.04116477099255     -1.70772775705599     -0.80061792510514
  C           6.17847094272208     -0.72112014760413      0.25269281213940
  C           4.54147223745866      1.77423261420555      0.73667936883257
  C           1.67557254572957      1.88026719625591     -0.16155372352650
  C          -3.06258855491264      0.85726688015588     -0.63447452865498
  C          -0.36622108649506      0.40423988928878     -1.92281682430078
  C           0.43152593534178     -0.62585820631619      1.80871944671336
  C           4.34235536768324      1.23480377073077     -1.73161640339865
  C           6.07038340946272      1.81565810270360      0.79109970849992
  C           6.68827283731353      0.46996956859711      1.07990372205201
  C           6.52368107315300     -2.01589794484149      1.00235663330844
  C           6.96215171735942     -0.72122270824867     -1.07740043065035
  C          -4.39171897050522      0.39781127299838     -0.02361131790313
  C          -3.00160087471887      2.38618633156567     -0.61834823745370
  C          -5.60525597864430      0.68726801613764     -0.89404071599790
  C          -6.95749434019419      0.72820978106111     -0.20359986087354
  C          -7.30837953386120     -0.58600932096142      0.53370117230586
  C          -7.38883491377619     -1.76858416135598     -0.42587597059149
  C          -8.63604891302832     -0.38223849061237      1.25860660753664
  H           1.21068542635831     -2.98759813323328     -1.34917309566308
  H          -7.64699976484055      0.48827079506237      2.66646193173616
  H          -1.95207324982452      0.48362967330752      1.14855517931804
  H           4.24835543577442     -0.80452370586864      1.09971182678150
  H          -0.24671816568364      2.68001830851622     -0.44360668184275
  H          -0.00468280249612      1.97696771366862      1.13702667766088
  H          -2.47386420721326     -1.83876449383687      0.82381304501380
  H          -2.41360426474302     -1.69132848991878     -0.91790478057757
  H           2.44258717495646     -2.55468413422084      0.35222014769019
  H           4.14613855394436     -1.45283972497543     -1.85458910871572
  H           4.53161019069757     -2.66926359849998     -0.66262005740854
  H           4.16473915608597      2.76784398663146      0.51956891999362
  H           4.15810469258086      1.49351393307744      1.72368716965698
  H          -3.06283866809253      0.52537298233203     -1.67459902162123
  H           0.65728161956588      0.50266164233560     -2.27750116656389
  H          -0.73795565675502     -0.55236051305033     -2.29281413919579
  H          -0.95841906788008      1.19271025944066     -2.38506608484814
  H           1.05658031629677     -1.44933389888380      2.15392251970646
  H           0.86530360583238      0.30170326558750      2.17286248223569
  H          -0.55455623961505     -0.75062955927788      2.25523652527128
  H           3.78555099694893      2.14548339177133     -1.94085871003777
  H           5.39714431727369      1.46041082526014     -1.86268343618699
  H           4.06596902454753      0.49037333292888     -2.47696809525179
  H           6.46384918307280      2.17140882839728     -0.16600729192784
  H           6.41625974536217      2.51188101081745      1.55471273976683
  H           5.95511552666498     -2.09796369537244      1.93054815748110
  H           6.31404083744925     -2.89271676462448      0.39060192090153
  H           7.57979451103158     -2.02457536530711      1.26283214332795
  H           8.01571440815457     -0.91905036429102     -0.87566784604671
  H           6.59202814137216     -1.50844408060295     -1.73516441511199
  H           6.89710053310994      0.22056687448223     -1.61574362675576
  H          -4.39456111600888     -0.68532994724604      0.13598576146953
  H          -4.53533524261121      0.84328044193847      0.96704736718332
  H          -2.88663267434594      2.76325928087265      0.40168149232887
  H          -2.17378180543651      2.76913964986176     -1.21085996687747
  H          -3.91441347151479      2.80919433250626     -1.03788847451780
  H          -6.94388843569371      1.56451945319137      0.50364779173973
  H          -7.71460925934109      0.93756817163185     -0.95914792059316
  H          -6.53999589980452     -0.78192690963135      1.28978823278591
  H          -7.62566480221416     -2.68821624675255      0.10870265914099
  H          -8.16998818634034     -1.60113192994726     -1.16613235831825
  H          -6.44252607229644     -1.90815012194196     -0.95038946519640
