81
Coordinates from ORCA-job 10494 E -1397.565244565298
  O           7.04546310101343     -1.37402768425120     -0.38713858245728
  O          -3.58258264763528      3.21730586460287      0.61002017996122
  O          -3.12959210657765      1.70279827842062      2.14781693119151
  C           0.67838251316864      0.76998819062188     -0.11800966582195
  C           1.42791415073953     -0.48252339427108      0.42107287969364
  C           2.95853518257732     -0.32641611954176      0.73944589055819
  C          -0.72081016758464      0.27160424304606     -0.69799816606834
  C           3.61483724305994      0.26177097252892     -0.54336490346303
  C           1.50919204790490      1.44677507644772     -1.22617405485356
  C          -1.49646254544845     -0.42964289781864      0.41822481152720
  C           2.98746778291345      1.61422312733404     -0.88404703026559
  C           5.17053683942725      0.23050740937807     -0.62698651531310
  C          -3.01573552241249     -0.47639596950384      0.40903396003189
  C           0.63290064751594     -1.13743563312588      1.55750591708362
  C          -1.50702201203074      1.47460995030898     -1.27785316724325
  C           3.52691838537295     -1.74561398167112      0.96016563363938
  C          -3.64291048387249      0.85113893272974     -0.06868776951506
  C           0.44526415411433      1.80238914740109      1.00363368378810
  C          -3.00818059590709      1.23667888076902     -1.41258863923320
  C           5.62492616082588     -1.22410629959245     -0.34621245717890
  C          -0.85049030123327     -1.06646173547820      1.38961646100029
  C           3.24488547034796      0.50501104581702      2.00734630508807
  C           5.05169816398376     -1.79928143938737      0.93926240219214
  C          -0.55520848607570     -0.74720087524750     -1.85442414572188
  C          -3.54355943712002     -1.68566207275447     -0.38648352504154
  C          -5.18515306108194      0.72762648904340     -0.16994185051934
  C          -5.07523027361309     -1.81265592433709     -0.42354728798676
  C           5.60580636818886      0.56976608916233     -2.06379181548312
  C           5.87340279731104      1.22062965116128      0.31390747354914
  C          -5.65029029185080     -0.49186504268059     -0.96008430643741
  C          -3.39902103122959      1.92755620684062      1.00254384278771
  C          -5.45796340512579     -2.95074656576675     -1.37458410099778
  C          -5.63485298225064     -2.13071294556463      0.96983693010494
  H           7.41283689686751     -0.99901486142817      0.42099465547273
  H          -3.78378461316680      3.25518833951352     -0.33377018890945
  H           1.42779343645091     -1.19482309750973     -0.40600348520548
  H           3.29987264553680     -0.42172201922430     -1.34462227797750
  H           1.46242324482150      0.85990365618005     -2.14430776837710
  H           1.07430568143867      2.42116360504843     -1.46007218315440
  H           3.11391031815819      2.31968595262825     -0.06121179788336
  H           3.48843101160134      2.06170251653466     -1.74263203555259
  H          -3.32029780486200     -0.61034211633022      1.44607003707127
  H           0.92785945997065     -2.18584482121284      1.65968190803250
  H           0.87782770769787     -0.68031814602212      2.52169350162639
  H          -1.36374083918315      2.35314619126086     -0.65231849051839
  H          -1.09179055739506      1.72600555232649     -2.25558220965313
  H           3.16326252207074     -2.15258131691139      1.90574932253713
  H           3.14566111859642     -2.40304285426940      0.17114076268291
  H          -0.21816842468849      1.43067644992304      1.78070463490252
  H           1.38195825055009      2.08732352177638      1.47066827832610
  H           0.00743527857798      2.72007626778460      0.61370357120657
  H          -3.48634255491904      2.12723115566158     -1.83906375646674
  H          -3.21240101104798      0.44637939617507     -2.13494204834532
  H           5.26872139522401     -1.83582140923137     -1.18150039257105
  H          -1.43386492489028     -1.55458814900100      2.16575445278707
  H           2.46695985863674      0.36984584264940      2.75602220713495
  H           4.17894955591288      0.20000149750253      2.47412015807827
  H           3.32482297777606      1.57080213440485      1.81139898300672
  H           5.46832871690921     -1.26055102864042      1.79641708799936
  H           5.39007589371683     -2.83332954004603      1.03584154465309
  H          -0.18043372182557     -1.70665897831630     -1.50573125710240
  H          -1.51712715500306     -0.93835592901459     -2.32640682596984
  H           0.10874616016399     -0.37578925812792     -2.63422558663126
  H          -3.18243245255720     -1.65172903766862     -1.41553439231521
  H          -3.10915274106498     -2.58700574830059      0.05283799415115
  H          -5.59544055160698      0.68327309893503      0.84119883922964
  H          -5.59143147473390      1.63607099122521     -0.62411456395688
  H           6.65960299027799      0.32491188087912     -2.19466614699892
  H           5.03053418326793     -0.00389540965300     -2.79481059299727
  H           5.47807418121163      1.62872908212815     -2.28892974387146
  H           5.78838716321849      0.95279441506450      1.36487012297954
  H           6.93447755969077      1.28159391555661      0.06541908452731
  H           5.46076023110732      2.22314286544287      0.19743122434837
  H          -6.74342850049524     -0.53110584126629     -0.94572854695257
  H          -5.36188453351818     -0.38541065984837     -2.01022131721281
  H          -5.04126352775707     -3.90141511829268     -1.03359760159825
  H          -6.54341966241512     -3.06295610365600     -1.43438543213996
  H          -5.08300807304256     -2.76245373445457     -2.38354613092983
  H          -5.39050011135287     -1.36715625503403      1.70749452478770
  H          -6.72306395713443     -2.22238217360314      0.93450722960775
  H          -5.23138690420806     -3.07854569615915      1.33316532954619
