100
Coordinates from ORCA-job 10507805 E -1858.448087823794
  O          11.26948058712534     -1.28447613610426     -0.98941714038127
  O          14.94513004133411      0.60080949826353     -0.33887290377699
  O         -11.22591587839315      1.26030402912677      1.14005777136876
  O         -15.73863033249465      0.97141892389688      0.59027918736220
  C          11.55887318270300     -0.23859094073264     -0.04965649056996
  C          12.03835309515533     -0.15358599615637     -1.45746541445914
  C          12.50949992893603     -0.66293998648878      1.08498767378267
  C          13.46732443689586     -0.49748676811415     -1.83219739371102
  C          13.74604592894967     -1.38146287686865      0.50986310029174
  C          14.42505055953854     -0.69542367088884     -0.66745394670548
  C          11.33694678368636      0.71602001667057     -2.46874396867962
  C          10.38719775512779      0.56676707545147      0.38334558954232
  C          12.91631847710424      0.56084415583076      1.92485770028382
  C          11.76507025732334     -1.65900998693275      1.98755429851056
  C           9.11516370681399      0.20155288052694      0.17865463192086
  C           7.93792545060152      0.94206475022101      0.58752213203351
  C           8.13416010552171      2.24465120793824      1.30848641772790
  C           6.71567278375581      0.42024102081826      0.29929470260584
  C           5.43176926058179      0.97134286189898      0.60425994493948
  C         -12.27357335672976      0.86942582238627     -0.98274662444394
  C         -11.60624477415740      0.18470394349783      0.26041462121257
  C         -13.62231262722782      1.45448552778672     -0.53652341437101
  C         -14.59320592721214      0.39137628849534     -0.04580505438394
  C         -12.59834408621189     -0.71040067545664      1.01522911079856
  C         -11.38594139523154      2.00155391132011     -1.50955628350831
  C         -12.48604960738267     -0.14797382286163     -2.11581416582851
  C         -13.91558404979950     -0.58676964037675      0.86485821155112
  C           4.26650452877068      0.36038837614360      0.27234488904839
  C         -10.39989314974024     -0.62043120241420     -0.15704802735580
  C         -12.01472733165440     -1.69332516676951      1.99285887503367
  C           2.94189458183991      0.84817388074134      0.54278652348102
  C          -9.12730284341639     -0.25329664713534      0.03314222249683
  C          -7.95272305651990     -1.00365497590983     -0.37193180510404
  C           2.79503953237455      2.16217707279587      1.25816303867737
  C           1.87569859791938      0.09534523330217      0.13836157826017
  C          -8.15661246966055     -2.31902053490490     -1.06674435855634
  C          -6.72797292381047     -0.47761162985564     -0.10578244896645
  C           0.49089334549000      0.38065636826743      0.30023915453633
  C          -5.44618869183659     -1.03327992938249     -0.41363547534252
  C          -0.50342537932019     -0.44021381192570     -0.13676724267067
  C          -4.27896969479425     -0.41842233463160     -0.09684981302563
  C          -1.88792023173144     -0.15378389054305      0.02663124002263
  C          -2.95562975821797     -0.90849296445140     -0.36974424087425
  C          -2.81225337664813     -2.22720510861503     -1.07698180602318
  H          15.50216426512573      0.51819700943389      0.44296597097005
  H         -10.87446952861410      0.87381628007103      1.94982627744100
  H         -15.42664810065596      1.46826299407601      1.35649449849223
  H          13.42735877240910     -1.41332904724709     -2.42875127054615
  H          13.87678712629418      0.28462781488893     -2.47310917379579
  H          14.47005215431891     -1.52816672581127      1.31849460641707
  H          13.44992458797255     -2.37884627987457      0.17594805370513
  H          15.25490980349366     -1.32884009694877     -1.00520044798661
  H          11.82305978824792      1.69270824990261     -2.52349537023042
  H          11.40039095614784      0.25400816915175     -3.45736259127389
  H          10.28939002167169      0.85820489586644     -2.21774434426371
  H          10.61638488192696      1.48812535961252      0.90286382602163
  H          13.70113890420661      0.27954153511774      2.63103660741099
  H          13.29358139289907      1.37099278385906      1.30342704632675
  H          12.07434997261390      0.92985613619852      2.51128730433460
  H          12.42926939733906     -2.02374232486523      2.77475774162004
  H          10.90129251454520     -1.19143934420514      2.46151125700972
  H          11.41483601905396     -2.51548966334139      1.40989338933037
  H           8.93911379075571     -0.73097317039135     -0.34767044830146
  H           8.70140834761724      2.09333360785741      2.23114385874033
  H           8.70800016627268      2.94384533260152      0.69403136990503
  H           7.19461831799563      2.72395870214950      1.57000174424360
  H           6.70341318365375     -0.53149616545015     -0.22579292440707
  H           5.39307419416093      1.91990694052935      1.12434789351512
  H         -13.44039094639874      2.16024095761129      0.27811749832360
  H         -14.07486552680595      2.01388866802816     -1.35835276091665
  H         -15.02145011661368     -0.14756943093503     -0.89673127854268
  H         -11.26391388335238      2.78854747252555     -0.76786369188818
  H         -10.39672469824563      1.63202854833300     -1.78239296123383
  H         -11.84249077289792      2.43499043890810     -2.40206399309446
  H         -12.98460622937432     -1.05607414808204     -1.77540229257290
  H         -13.10052701837151      0.30128171229084     -2.89843051902771
  H         -11.53583490198990     -0.43404060892502     -2.56724193108351
  H         -14.58476103191512     -1.21899903326939      1.44159151978701
  H           4.32405779021919     -0.59186992412237     -0.24862162493613
  H         -10.62338856046606     -1.55570963423986     -0.65499391962183
  H         -12.79899130574569     -2.16008988928327      2.58826058230338
  H         -11.45052663911886     -2.48045300420853      1.48751860692623
  H         -11.31260023826260     -1.21265096117506      2.68183773227211
  H          -8.93809668969031      0.69609547862487      0.52324638642568
  H           3.27795840094176      2.12469373554991      2.23819708405619
  H           3.27687235126917      2.96512318931148      0.69415249701826
  H           1.75578299400778      2.43997502472988      1.41016032497037
  H           2.10466034694273     -0.83819871938855     -0.36957842774839
  H          -8.72555340912252     -3.00663948423820     -0.43472132121733
  H          -8.73125082509372     -2.18505737684467     -1.98749102507924
  H          -7.21954469209456     -2.80403433354943     -1.32647191645700
  H          -6.70968254804564      0.48352853290122      0.40207744821241
  H           0.20266138894181      1.29997372647053      0.79852609549736
  H          -5.41130627592372     -1.98797555649882     -0.92258708356322
  H          -0.21596616139592     -1.36000373836551     -0.63455320786353
  H          -4.33344765725594      0.53960557818712      0.41393042900488
  H          -2.11506288428041      0.78250560682825      0.53042056178460
  H          -3.28881501338835     -3.02706909794149     -0.50402355017009
  H          -3.30210709724299     -2.19730316928797     -2.05384340541779
  H          -1.77366806404018     -2.50459470098631     -1.23428232757646
