36
Coordinates from ORCA-job 10538117 E -770.858965512999
  O           3.68893403820850     -2.33335780800504      0.13868034263441
  O           3.70135371549934      2.32115409690907      0.13436823081139
  C          -0.58794213674611      0.00453648791216     -0.68504986874695
  C          -1.39779539540940      0.00558073153488      0.62867155897185
  C           0.89741353404027      0.00083576276916     -0.43805795735639
  C          -2.88191883014730      0.00953428779862      0.38158574587357
  C           1.58042181824635      1.20614553135239     -0.29886360521470
  C           1.57397527921328     -1.20786418931492     -0.29659726229393
  C           2.94092947423815     -1.20536739348470     -0.01324202050819
  C           2.94736752831149      1.19688565733251     -0.01547814260627
  C          -3.58032751979082      1.20873046850042      0.24349841872375
  C          -3.58536077046621     -1.18589284000527      0.23627269679628
  C           3.62762066697993     -0.00592996663724      0.12797494494075
  C          -4.94198547879277      1.21588425302460     -0.03251815584253
  C          -4.94701030206734     -1.18567622032414     -0.03975570974666
  C          -5.63043828086311      0.01697437507956     -0.17624440546230
  C           3.04731110448829     -3.58909755254816      0.00702737707930
  C           3.06645181012281      3.58004101716633      0.00026093915127
  H          -0.87325629440423     -0.87120783978049     -1.27264892581521
  H          -0.86908336698555      0.88244124423699     -1.27142102645651
  H          -1.11669819314253     -0.87241814753813      1.21481214546634
  H          -1.11224295118395      0.88125593688002      1.21610801157178
  H           1.04130013766519      2.13447497502373     -0.41676547624936
  H           1.02990998675759     -2.13352691642162     -0.41277466468666
  H          -3.05062430420538      2.14758890605034      0.35875528720750
  H          -3.05961815846359     -2.12765746098238      0.34587471020949
  H           4.68680599815694     -0.00857116610258      0.34246880666065
  H          -5.46681331052866      2.15786397221940     -0.13138655756003
  H          -5.47579274744878     -2.12482983794988     -0.14430027038275
  H          -6.69191998901459      0.01983159986686     -0.38827839124658
  H           2.25982965718166     -3.71656449954101      0.75601534472033
  H           2.61868756692502     -3.71681367897276     -0.99156574990649
  H           3.81954847546484     -4.33834636826626      0.16573167635210
  H           2.27967547551488      3.71318698479359      0.74900071630676
  H           3.84268410998078      4.32546083066109      0.15749756500200
  H           2.63849565266502      3.70809676676286     -0.99857332839801
