23
Coordinates from ORCA-job 1054 E -591.822929034003
  O           1.56774734985586      1.83294042658280     -0.49476603886588
  O          -1.26529580394690      2.51284185995464      0.92046291659616
  O          -2.90881562072009     -0.99457129654025     -1.00154673196396
  N           1.34045230203301     -1.69977428994216      0.30345924903119
  C          -0.34203794165098      0.50111635609040     -0.09716674388085
  C          -0.86544076345400     -0.76015862419900      0.20434246850990
  C           1.04370079780894      0.61160818976022     -0.19267957693576
  C           1.85961877925995     -0.51016500640004      0.01187767109453
  C          -1.21179571279735      1.71897528366155     -0.27051017968238
  C          -2.34284785543978     -1.00558197373542      0.31222954177493
  C           0.01886729748888     -1.81570221174857      0.39223285105960
  C           3.35476204439788     -0.40268957821477     -0.09505708274167
  H           2.52759020958598      1.77338713888972     -0.54789414444285
  H          -1.51353125251984      1.93990499466335      1.65425609497025
  H          -3.85891347703554     -1.13910856319322     -0.92764640820837
  H          -2.21263946151170      1.42362718824299     -0.59005001293520
  H          -0.79164107282960      2.37191464044509     -1.03277086157450
  H          -2.81931069564302     -0.23879158784888      0.93543706471051
  H          -2.50900648135605     -1.97389273737674      0.79558742423123
  H          -0.36241852715448     -2.80472793961424      0.62517572307180
  H           3.76541988205596      0.30694500677321      0.63127676568152
  H           3.79495235864929     -1.37801000482918      0.09752991523778
  H           3.66879164492357     -0.07885327142153     -1.09341390473801
