39
Coordinates from ORCA-job 10542808 E -1034.424114813721
  O           1.63176299135491      1.24955732483709     -0.41985291866233
  O          -1.70489059621582     -1.25407302301362      0.15277797588432
  O           4.51963658459723     -2.45394195166576      0.23781953149813
  O          -6.47178294969866     -0.79643916530098      0.16947222730407
  C           2.67577705440003      2.19301468627628     -0.03595319117493
  C           1.80062694343380     -0.06595637714299     -0.14614799038765
  C           3.09480955829200     -0.60010094943481     -0.07226801417136
  C           4.03165272895883      1.60923034706312     -0.33308695201900
  C           0.65698520198895     -0.87277495727173     -0.01235753357486
  C           2.39880249495698      3.43282218300152     -0.87375905272035
  C           2.52390306738001      2.48235884659719      1.45921497974020
  C           4.21824427740790      0.29025530106076     -0.31205815659061
  C          -0.68734831409312     -0.33848616024562     -0.10353172372619
  C           3.24531907371739     -1.96866678353164      0.16841236200562
  C           0.86174003794812     -2.23898942935275      0.22709437185583
  C          -1.21821299907670      0.88218265094279     -0.39560165134793
  C           2.12955116227611     -2.78425975356865      0.32337005244958
  C          -2.64660975043543      0.74961721380541     -0.32306468664632
  C          -2.88546708911087     -0.59090915411882      0.01923019570725
  C          -3.74473051990368      1.59137934641181     -0.50488877871357
  C          -4.14257328541919     -1.13622634923651      0.19075144381984
  C          -5.21778726151988     -0.27301912985916      0.00351204795318
  C          -5.02094940163876      1.07324171293597     -0.34023475236551
  H           4.49027174463776     -3.40831512392238      0.36752053100208
  H          -7.12811500900282     -0.10864376493593      0.01339536455157
  H           4.84455170945775      2.29830370065148     -0.52480868473723
  H           3.12077190372032      4.21470706458083     -0.63371340365934
  H           2.47543815813446      3.19907758408993     -1.93561106351589
  H           1.39736567711976      3.81255425155985     -0.66820125763795
  H           2.65572634057910      1.56699070379567      2.03682351206979
  H           3.27931685375583      3.20089044164287      1.78183636515174
  H           1.53399645262301      2.89243532549614      1.66633072922360
  H           5.19156455666933     -0.14737058605021     -0.48471332695288
  H          -0.00170468163297     -2.87644358056526      0.34582702880764
  H          -0.65332075681147      1.76068328162194     -0.64185418110102
  H           2.25339353964557     -3.84361719596380      0.51643205714704
  H          -3.61123083237432      2.63204483180963     -0.77063166411670
  H          -4.29990236827105     -2.17206448383987      0.45491663057574
  H          -5.88523229785042      1.71370312084018     -0.47803142292561
