46
Coordinates from ORCA-job 10597338 E -1412.495087231805
  O           0.42757259192489      1.34411983738983     -0.09186203920739
  O           2.51238982116291     -0.77279152518619      1.71266209758001
  O          -3.77881036255398     -0.54976390346709      0.67088252131554
  O          -1.22438017317617     -2.27129721281864     -0.83218929569217
  O          -2.72210670744733      1.02320580075467      2.96823282913385
  O           2.53573325109790      1.91170464359902     -0.47853408603322
  O           4.18094047710045      0.00067869496262      2.95911099005896
  C          -1.70425067164426      0.44133736218134      0.32320872093788
  C           0.63624803420012     -1.48712666593862      0.50325607215024
  C          -0.87041920875828      1.21990378049540     -0.47449776934575
  C          -1.21944102899397     -0.19358270730528      1.56466680691133
  C           2.02269474695327     -1.28133472354466      0.55785226234896
  C          -1.33101726297333      1.86294940799438     -1.63554963332792
  C          -0.17194315291617     -1.03219669389153      1.63563974720651
  C          -3.03960415944431      0.29446995301537     -0.07877171362758
  C           2.85917082078484     -1.52182683597258     -0.53774658772357
  C           0.11044937412952     -2.02350278546635     -0.68080997140194
  C          -2.67812307528795      1.72084326970863     -1.97873075701823
  C          -3.52991899268653      0.94862732653671     -1.21555225186227
  C           2.28639388395659     -2.02135758435287     -1.71243853376280
  C           0.93330508466062     -2.28299227317136     -1.77904096989354
  C          -0.38327358203170      2.61759532377631     -2.39729084924674
  C           4.24832781304567     -1.19328147118036     -0.39653081482825
  C          -1.84990606210132      0.19803003874632      2.84454622317901
  C           0.91392943951147      2.67918960495228     -2.03476627812618
  C           4.72218942207011     -0.67188146767084      0.74838210188150
  C           1.39552187713130      1.98591227556961     -0.85619983523604
  C           3.85627508361925     -0.43416344662823      1.88954855696634
  C          -5.18681805452403     -0.58417614211539      0.48752341813071
  C          -1.78989409835825     -3.28221229452172      0.00413090126643
  H           0.16531248217286     -1.33038633175959      2.62348242147092
  H          -3.04994346317461      2.21805857539242     -2.86601088272444
  H          -4.56185260874754      0.83758924137151     -1.51017732934017
  H           2.92077903651768     -2.20575475217053     -2.57040733568329
  H           0.47910789222101     -2.68720501563265     -2.67291505447222
  H          -0.72875322189673      3.13200605128581     -3.28691228158631
  H           4.90751420131268     -1.35995016099592     -1.24047602223440
  H          -1.43216366814587     -0.32958263261205      3.72641787322555
  H           1.65528344060869      3.22307740101870     -2.60094734938462
  H           5.75826342155458     -0.39862008672155      0.88188140346495
  H          -5.61997165509773      0.41148109802853      0.60640323610919
  H          -5.45048435417211     -0.98832276028637     -0.49369725563241
  H          -5.57025275762013     -1.24111623652694      1.26392581283546
  H          -1.67014204660655     -3.04388778669849      1.06148324131704
  H          -2.85002562717921     -3.31226893000299     -0.23433352605916
  H          -1.33097720019833     -4.25098926014065     -0.21236181403979
