40
Coordinates from ORCA-job 10613719 E -960.387898092344
  O          -1.16883374689537      2.38236065000024      0.01251073116909
  O          -8.46101499971937     -1.89702107687564     -0.04576549401401
  O           8.82993704468098     -1.50317680719020     -0.04776950413550
  C          -3.74399635500104      1.27211209528302      0.00505706610537
  C          -2.49672603561820      0.38990517458095      0.00283046676240
  C          -5.01305219428865      0.46070734099491      0.00841872240575
  C          -5.59103295385823      0.01959280293494     -1.18354322999573
  C          -5.62873019822030      0.08889008297572      1.20131576370756
  C          -1.19066179134018      1.16379574523426      0.00330226342877
  C          -6.73536989164113     -0.76383387187478     -1.19285456581974
  C          -6.77604499864512     -0.69581977262089      1.21165790458221
  C          -7.33210942745102     -1.12595342744517      0.01111541283015
  C           0.03688547587994      0.34639254039282     -0.00696663155918
  C           5.01417735517636      0.18240217776909     -0.02339145331629
  C           1.26164884213322      0.90585793970830     -0.00632412582202
  C           3.69986673918743      0.79838812134558     -0.01445401306029
  C           2.49907051935046      0.18390435984143     -0.01594286382362
  C           5.21813017589549     -1.20834039283139     -0.03746968879543
  C           6.15127284932299      1.00042582559852     -0.01790008024155
  C           6.48654520882286     -1.75115735094453     -0.04541183146778
  C           7.43064249298552      0.46823497323359     -0.02570849937315
  C           7.60353916568961     -0.91303776498865     -0.03949972561650
  H          -8.77793228956212     -2.06839487851755      0.84800796286723
  H           9.51836980136445     -0.82805755186359     -0.04297295018726
  H          -3.71139966042576      1.92868386606647      0.87605531157135
  H          -3.71498522321568      1.92734300868354     -0.86733945448676
  H          -2.49655204812541     -0.27838442606013      0.87203016306860
  H          -2.49777744649583     -0.27733817745369     -0.86699957332047
  H          -5.13878032759487      0.30066327771978     -2.12791326339109
  H          -5.20953067627206      0.42184230433009      2.14389991264033
  H          -7.18048501675915     -1.09615667715292     -2.12135113872291
  H          -7.24120924042894     -0.96763055313858      2.15337475266343
  H          -0.07482520982307     -0.73304636441647     -0.01532081541644
  H           1.31081791486001      1.99147798479877      0.00210483640309
  H           3.70103031579723      1.88518879091002     -0.00539688310033
  H           2.43753748534497     -0.89962858878317     -0.02459707727469
  H           4.36801338802975     -1.87715202854343     -0.04250249361284
  H           6.02612007310513      2.07638726367527     -0.00722553752803
  H           6.63723039145789     -2.82230189047356     -0.05636817886227
  H           8.29419649229725      1.12413727509702     -0.02116219726144
