43
Coordinates from ORCA-job 10633702 E -737.563856219092
  O           2.36717620469432     -2.39272127675090     -0.55815115020703
  O           0.86997564463584      2.19634426157629     -1.48398577735903
  C           0.78291917793827     -0.66411578746836     -0.81177149557591
  C           1.67731832038717      0.42187439445045     -0.13372422572413
  C           1.10348707654099     -1.95206026423390     -0.00917871708107
  C           1.18468380117334      1.88183602678476     -0.11351835785191
  C           2.06740435854296     -0.13080062033554      1.26862800056942
  C           1.33436779903478     -1.46585337690784      1.42320757685253
  C          -0.70741235779940     -0.36810129819076     -1.01614882492771
  C          -1.52172480209504      0.14363205489460      0.18934559255641
  C          -0.02812647770971      2.16239700240554      0.79595480174153
  C          -1.39530500030710      1.66597520700070      0.33583457426048
  C           0.09213066488307     -3.08251613818550     -0.11468173060432
  C           2.34376109203862      2.78117739283692      0.33359969308031
  C          -2.97234284227187     -0.27644457770212      0.07492858413790
  C          -3.75114683942381      0.23473188577077     -1.10526176166347
  C          -3.52879057507840     -1.07474962063823      0.98331211233845
  H           2.68380790419048     -3.13114096956499     -0.02509365923816
  H           0.70367753912047      3.14377561142493     -1.54703724553140
  H           1.17496861007180     -0.83825654685183     -1.81432835884788
  H           2.58777003897344      0.45842325085021     -0.73135981519507
  H           3.14486577773718     -0.28388291355854      1.31304234148431
  H           1.81587583686030      0.55444946861055      2.07713538964739
  H           0.37401546283005     -1.32922763647176      1.92368517695505
  H           1.89555363770164     -2.19831516581176      2.00970395167427
  H          -0.78465470507420      0.36743392090962     -1.81631501028899
  H          -1.17049603461286     -1.28021225702147     -1.39649201716554
  H          -1.14200292411159     -0.31106526394483      1.10662803217489
  H           0.18342395386001      1.76769357070316      1.79297534543220
  H          -0.09513829271208      3.24887233693083      0.92134017105153
  H          -1.64558619483486      2.13666546893210     -0.61759858567910
  H          -2.13549509439035      2.01369786406456      1.06248692849515
  H           0.44960080749978     -3.95179679314418      0.44475767319915
  H          -0.87929957611558     -2.80235060329122      0.29321612345249
  H          -0.04065114386468     -3.38381578174330     -1.15477865250641
  H           2.62452565991383      2.59272335555622      1.37072746944956
  H           3.21606787692449      2.61364182212857     -0.29888258079862
  H           2.05742012896352      3.83379505715623      0.25666100381744
  H          -4.76432341133277     -0.16641657147084     -1.11261225436570
  H          -3.81751478411855      1.32579022314068     -1.09098726931623
  H          -3.26724689349555     -0.03741462634431     -2.04668905819274
  H          -4.56269079938419     -1.39012528245925      0.90776612998810
  H          -2.96770762578377     -1.43931280403623      1.83591287576188
