77
Coordinates from ORCA-job 10647480 E -1432.264459271344
  O          -5.57494124695615      2.75731841339484      0.65827780643287
  O          -7.00680406520802      0.68161787106416     -0.53079676129271
  O           3.77701005121905     -3.10654520427613      0.79515662764339
  O           3.24882348594527     -1.56719607009871      2.28308738854428
  C          -0.54462233933786     -0.98492719799083     -0.22761128898822
  C           0.85411376810673     -0.39027860002951     -0.71646877258229
  C          -1.35828346124423      0.19591352840428      0.38663806816358
  C          -2.90110251059014      0.00874298842161      0.57358497966293
  C           1.53504277929592      0.33680165552985      0.45025445970055
  C           3.04426479688463      0.54663886663212      0.45381682944517
  C          -1.31116025411289     -1.60982896240161     -1.41044687504313
  C          -3.48053100725219     -0.59252483188011     -0.74178433208981
  C           3.77434310731102     -0.75718914412783      0.05280583696295
  C           1.74592258393897     -1.54501708577697     -1.24482988902086
  C          -0.64994466718522      0.69694604423136      1.64543034280346
  C          -2.78123800525112     -1.89253584593546     -1.11492012449285
  C           3.23447071832587     -1.21534050303621     -1.31013091266186
  C          -3.52967398458168      1.41288237523603      0.74166059033355
  C          -0.29563591565754     -2.08983242973145      0.82375080426543
  C           3.52584208278835      1.78453121994606     -0.36267639458843
  C           0.83011416387764      0.80387337294709      1.47710966284446
  C           0.69311061201557      0.61699063288531     -1.88042047756119
  C           5.30760958025056     -0.55606548216136      0.03228073735883
  C          -3.30332242621457     -0.84839649825784      1.78545644803574
  C           5.05815633039586      1.93419764667767     -0.28826436283147
  C          -4.98694001793765     -0.63643817892829     -0.69864375705854
  C          -5.05404850983396      1.41962011202151      0.69300461930492
  C           5.73941383167537      0.65682060148616     -0.77662943783220
  C          -5.59310990065981      0.73464376195731     -0.56001276400446
  C           3.54205557726752     -1.81395237953525      1.14834081795066
  C           2.81145132199177      3.05215676269166      0.10470714009283
  C           5.57872194122088      3.13785341353243     -1.07476770271690
  C          -5.72755207031828     -1.73621954761113     -0.75846471134087
  H          -5.45430898586950      3.16302558531465      1.52297677667367
  H          -7.30505655976139      1.56921784398073     -0.29593312431025
  H           3.99467208105807     -3.16380768977558     -0.14400672686421
  H          -1.29626022536633      1.00262385826412     -0.34649389069111
  H           3.31855215555298      0.75112922564322      1.49081412806136
  H          -1.28926570194906     -0.94041767880224     -2.27094536109630
  H          -0.81047497366703     -2.52957120509414     -1.72018829701071
  H          -3.22008626441870      0.13162351492887     -1.52788333464475
  H           1.62832265238231     -2.42159300443222     -0.61220514031379
  H           1.39505094027863     -1.83408249154777     -2.23732502236403
  H          -1.04392424569015      1.67391158894998      1.94011168307784
  H          -0.85088745625176      0.03538000699379      2.49456663981047
  H          -3.24986815384693     -2.31758534873318     -2.00517748630368
  H          -2.88976429113466     -2.63745999985370     -0.32424005074127
  H           3.42718465031587     -0.43255632813244     -2.04325211246177
  H           3.78850227111724     -2.08439463378703     -1.68715286955891
  H          -3.20993011412220      1.86155197429014      1.68590263303517
  H          -3.17118437029472      2.06797955540165     -0.05789452668709
  H           0.46704951107632     -1.80740378784205      1.54641563710912
  H          -1.19808608404225     -2.32237950672458      1.37780186445227
  H           0.02177345821605     -3.01877323897395      0.35166414700921
  H           3.28397356870717      1.64134087222954     -1.41918288933652
  H           1.36297844617274      1.28490696975162      2.29147214396526
  H           0.13267542403826      1.50264066243877     -1.58849456869758
  H           1.66670332366347      0.96043967079949     -2.22077586960272
  H           0.20264325075160      0.16527850191839     -2.74146268848296
  H           5.65035049979004     -0.42986163476046      1.06337638574819
  H           5.78974205300309     -1.46120253177817     -0.34865005212421
  H          -2.89827980174601     -0.43737921738823      2.70995271198777
  H          -4.38589878938404     -0.88681057994505      1.88712389871268
  H          -2.96977297410063     -1.87848223197927      1.70517746123128
  H           5.32483111802722      2.07364396735010      0.76813138445263
  H          -5.47570228708105      0.89655775295566      1.55666346673612
  H           6.82501996463577      0.76531320976424     -0.70557506684360
  H           5.51611081145764      0.51267970960451     -1.83907367709563
  H          -5.26316952920018      1.33976000808266     -1.42017532426870
  H           3.08361278599480      3.29076305711415      1.13705386624117
  H           3.07340567876647      3.90642964792336     -0.51808728507536
  H           1.73091715500485      2.93280708458078      0.06941075841952
  H           5.24358178070160      4.08530848747185     -0.65477678097428
  H           6.67089974894537      3.14736300648220     -1.07750131348960
  H           5.24557743048436      3.09503221669140     -2.11603795801321
  H          -6.80568594904640     -1.67756798373150     -0.71489155351281
  H          -5.28058735333866     -2.71630919092512     -0.85540021159848
