39
Coordinates from ORCA-job 10655819 E -585.909712965075
  C          -0.96318490281883      1.04881426157986      0.12533563736943
  C          -0.56552090720885     -0.43611218139140     -0.13364936886480
  C           0.26243918365049      1.92958440614669     -0.16530511652526
  C          -2.09734416600573      1.41902950543650     -0.84836379564284
  C           0.68276669235481     -0.84858910760689      0.65743414892785
  C          -1.76517022624574     -1.33777024878057      0.02013900077622
  C          -3.30845997897361      0.49115039621344     -0.75113992599105
  C           1.53141449949409      1.49359913783485      0.58250677554212
  C          -1.43230665387564      1.26490571135440      1.57151014028299
  C          -2.89828830706632     -0.98058737406060     -0.90674056910492
  C           1.85347270860268      0.04251237059074      0.31712973019926
  C           3.01294113161382     -0.39721721211272     -0.19606321196765
  C          -1.85399300312896     -2.33519282591985      0.89561202439223
  C           3.32205645040717     -1.84471468241592     -0.48244945808271
  C           4.17622220011893      0.49356391375003     -0.55114822959272
  H          -0.28512795718439     -0.47875923094033     -1.19591437362846
  H           0.46794742509586      1.89722404276868     -1.24032089615589
  H           0.02709120622345      2.96999013506795      0.08014095704698
  H          -2.40136871454255      2.45561713771032     -0.67371984571115
  H          -1.70022350842341      1.37848511022547     -1.86889973071717
  H           0.47575902846905     -0.77539155011532      1.73050080378564
  H           0.89338895490606     -1.89533825626711      0.45822411534652
  H          -3.80792854630574      0.62522332975574      0.21155089623030
  H          -4.04012411084080      0.75407157220588     -1.51925138314626
  H           2.34773974498885      2.15585933915896      0.30605453273935
  H           1.38018062087653      1.63089979766396      1.65908934870818
  H          -0.63431162640833      1.09177266957842      2.29228928770184
  H          -1.77468117625266      2.29437395734405      1.70072054155109
  H          -2.25183384137357      0.59854290623606      1.83608565694228
  H          -2.56792080015903     -1.14109009235355     -1.94080953686288
  H          -3.75239767691068     -1.63874527779552     -0.73702625077562
  H          -2.75066724593255     -2.93985289350053      0.96269716294920
  H          -1.04780411295414     -2.58805658467582      1.57100136455686
  H           4.19243859743367     -2.16854177398068      0.09803715400646
  H           2.50601024214173     -2.52732969285464     -0.26490177906267
  H           3.59152518219650     -1.97187242456804     -1.53610414681310
  H           5.06980256517765      0.18643967062057      0.00237559703230
  H           4.42277698187751      0.39045395415840     -1.61311365173124
  H           4.00902804698267      1.54752408393849     -0.34969360571069
