39
Coordinates from ORCA-job 10657 E -585.914899417650
  C          -0.05308603151638     -0.22827580797968      0.12567937001511
  C           1.40715624292880     -0.22240984344863     -0.35003739700414
  C          -0.78447878153431      1.05079939182250     -0.31072071020484
  C          -0.85220008737253     -1.44462721852592     -0.34398342156768
  C           2.13045653295420      0.97735285440453      0.27029606312343
  C           2.15203260927710     -1.55854032771741     -0.13032203153289
  C          -2.14740650453119      1.11334672947751      0.39385881271070
  C           0.03557705577302      2.30462741734600     -0.10942771654839
  C           1.33648430997160      2.24488333792888      0.16935434647009
  C          -2.32717671924455     -1.34262139036685     -0.05220425152110
  C          -2.88716798569443     -0.18898267968450      0.30665354315653
  C           3.55519618687770     -1.53272141748168     -0.74266831574899
  C           2.21669882308650     -1.99833524004969      1.33501955795778
  C          -0.66823461978243      3.62203764313434     -0.27653722194050
  C          -3.11199978559160     -2.61449798713492     -0.18190883151049
  H          -0.05126513582972     -0.23306766135315      1.22298993160669
  H           1.38345652071349     -0.05811298376573     -1.43600831354444
  H          -0.99311290947127      0.96277722712653     -1.38814295542689
  H          -0.70444054729541     -1.59420047616202     -1.42270612159712
  H          -0.47158004192042     -2.35448150616670      0.12853392533304
  H           2.36589333288674      0.77425780985700      1.32200159622953
  H           3.09497785893162      1.12759298189810     -0.22152539071773
  H           1.58874768056936     -2.32215897190601     -0.67444306583742
  H          -2.00353672803174      1.39877499165311      1.44454520423512
  H          -2.76309097894621      1.90255501028901     -0.04522580522218
  H           1.88360456422151      3.17244755215191      0.31324848711689
  H          -3.94824093695811     -0.16630906424766      0.53802833336632
  H           4.22220583066034     -0.86379295449294     -0.19503478164090
  H           4.00280298814828     -2.52870075816831     -0.72072973043673
  H           3.52778335631127     -1.20053034992588     -1.78328020673301
  H           2.81215381560636     -1.30756243071594      1.93548333825588
  H           1.22715623954920     -2.06477537348433      1.78929929469836
  H           2.68341413264942     -2.98251500484220      1.41452760811292
  H          -1.43568251044800      3.77565353586347      0.48648828648566
  H           0.03633875853056      4.45175782068408     -0.21757062368036
  H          -1.17494309879128      3.67443383496570     -1.24593641753087
  H          -2.73894481775089     -3.37848067580935      0.50792160962155
  H          -4.17180155652524     -2.45751139967896      0.02081164312578
  H          -3.01518006241139     -3.03124761549416     -1.19001264167471
