21
Coordinates from ORCA-job 10654258 E -461.505655556727
  O           0.35867928705354      0.36567474886737      0.27780288008540
  O          -3.14730558188078     -0.25835097159314      0.62304710897713
  O          -0.86614864315138     -1.50775795671441      0.03715536797122
  C           2.73437402586373      0.58533716104135      0.07494609449842
  C           1.57055629586521     -0.37920191959474      0.00777912955878
  C          -1.99661961386281      0.55237625732239      0.53680804255345
  C          -0.78354671035435     -0.32172960042720      0.25655375484612
  C           4.06125558496584     -0.11991125558705     -0.19755948213287
  C          -2.16942320982818      1.62613916097789     -0.53636184996827
  H          -2.86661068757631     -1.16308295429815      0.41576127193034
  H           2.57572649581965      1.38549452296158     -0.65259990670142
  H           2.75141284369070      1.05400838970118      1.06222007479312
  H           1.65991618454282     -1.17775614485768      0.74664741179817
  H           1.48207888223123     -0.84293104124650     -0.97644857596522
  H          -1.82579923416844      1.03873290302003      1.50527548809446
  H           4.24922289278506     -0.90924934482713      0.53394235478246
  H           4.07197162351251     -0.57663794312003     -1.18993370937328
  H           4.89251977062389      0.58414526352220     -0.14723079919724
  H          -3.06877894247234      2.20170177131474     -0.31864724112060
  H          -1.31226930726936      2.29926856649666     -0.55759233209927
  H          -2.28792895639022      1.16315038704065     -1.51755508333091
