23
Coordinates from ORCA-job 10685 E -517.584931461484
  O          -3.38498618700421      0.21959457935840     -1.20734754791131
  N           0.34429944444802     -2.05129050953909      0.10274666929250
  C          -0.98059121353056     -0.29942771944990      0.59097643345743
  C           0.33230450458339      0.18739523343062      0.26963482763325
  C           1.13851731825619     -0.93819199008166     -0.03022544214664
  C          -2.17388655832119      0.53441504842016      0.91865881621349
  C          -0.92478961850118     -1.65898564765702      0.47493146498789
  C           0.90465708252561      1.46326597951863      0.21160486970231
  C          -2.83408201022786      1.17321553370345     -0.30802169725785
  C           2.48103793358828     -0.81811362766582     -0.37889507903452
  C           2.23791473440494      1.58724457719259     -0.13529300100298
  C           3.01832967454998      0.45683343379149     -0.42842029494775
  H          -4.08148670603489     -0.26422861985262     -0.74996165263682
  H           0.63996232216242     -2.99903889750618     -0.04130379548862
  H          -2.92149000342963     -0.06769858289984      1.44631765269709
  H          -1.89146667879403      1.33956939035528      1.60594837749917
  H          -1.70220767066049     -2.39018671817040      0.62442172366601
  H           0.31395414615585      2.34302585911029      0.43546980452536
  H          -2.09230415980612      1.72430265593975     -0.88704768112991
  H          -3.60215800162397      1.88528655585826      0.02035580032902
  H           3.08507823637030     -1.68826160749391     -0.60474794262082
  H           2.69109956530871      2.56899242496548     -0.18378878193295
  H           4.05869284558043      0.58519564867205     -0.69796852389336
