22
Coordinates from ORCA-job 10696 E -425.350012866482
  O           3.07288924623243      0.04970106448264     -0.12072996546278
  C          -1.09242590501366     -0.00935873499420      0.02262542705088
  C          -0.37655850921034      1.20040157070984      0.01920159448169
  C          -0.38655231464359     -1.21873681332390     -0.02313477827134
  C           1.01210937276346      1.19469864359666     -0.02902080526719
  C           1.00704697390906     -1.20414590033756     -0.07119707364174
  C          -2.59794983327430      0.02560598318825      0.07555806737141
  C           1.70593849627083     -0.00596328382036     -0.07429490187087
  C          -1.10418772313704      2.51664986866135      0.06766990974347
  C          -1.09253379756775     -2.55113166722921     -0.02208669738477
  H           3.42706788750361     -0.84602966250464     -0.14873800728415
  H           1.56904008868274      2.12274738929844     -0.03193146145450
  H           1.54994526358192     -2.14327388197926     -0.10660539417113
  H          -2.95386364269047      0.53537614184384      0.97549151821526
  H          -3.01476171140557      0.57045957062895     -0.77634452565921
  H          -3.03456632390679     -0.96951268267234      0.07081043090298
  H          -1.71901245862022      2.60127441004779      0.96777018725553
  H          -0.40380772857567      3.35085217240844      0.05880477311144
  H          -1.77867383958583      2.63276373609989     -0.78494724921129
  H          -1.69985937233020     -2.68622236478735      0.87608901095182
  H          -1.75988284602258     -2.65580114522449     -0.88087563549268
  H          -0.37264832296003     -3.36827641409278     -0.06084442391283
