54
Coordinates from ORCA-job 10711515 E -1043.826379060193
  O          -0.00558475534617      3.16783213278487      0.33465384991902
  O          -4.94274256994516      1.57014459174952     -0.07364525307966
  O           6.01297453486896     -0.19447368347965     -1.32841860734914
  C          -2.24675407547238     -0.68716079940717      0.23901019928508
  C          -1.49765266927224      0.60711337328890     -0.17251103423567
  C          -0.08045129906098      0.69714825286800      0.39625779318395
  C           0.71949890765485     -0.54972842898608     -0.06737002193957
  C           2.20267505734518     -0.58329446548047      0.43319051600283
  C          -1.46381304008892     -1.87994444508008     -0.29679731322900
  C          -0.02207176235561     -1.86807259190944      0.21779926909526
  C          -3.62103259171015     -0.45438521418827     -0.42927420077123
  C           0.64928120355428      1.96519732963402     -0.05603182201473
  C          -2.52147930545319      1.71555957075830      0.08703510407099
  C           2.85865508674376      0.73989980595351      0.07299115055300
  C          -3.86698530035770      1.03091228482294     -0.14676818469254
  C           2.09608468299957      1.97801076114737      0.43270516881911
  C          -2.43225482115313     -0.80182724910734      1.76171220170756
  C           2.93558839937949     -1.74353497007935     -0.27374442515557
  C          -4.77621936551567     -1.38143453428320     -0.06280857696532
  C           2.28748916675654     -0.77022996496259      1.96346791781206
  C           4.45603553279546     -1.63991085701251     -0.21938160220734
  C           4.06271765135965      0.83209207133912     -0.51177339133991
  C           4.94209405174686     -0.31587921033720     -0.76390111145501
  C          -5.91812355836334     -1.34428320026672     -1.07706228363558
  H           0.03067388854736      3.24165552449654      1.29572632023659
  H          -1.37770201628456      0.54114507868154     -1.26247271461434
  H          -0.13128139352442      0.71834488245361      1.49132826820076
  H           0.78721599873595     -0.45989852763148     -1.16016990038979
  H          -1.94339060650103     -2.82235975407782     -0.01849601452661
  H          -1.46085097260582     -1.83815739682866     -1.39131564065394
  H           0.51840227410274     -2.69447444572296     -0.24330901880580
  H          -0.02299643963170     -2.06743514589857      1.29060371309780
  H          -3.45409019584702     -0.51860977580438     -1.51534591368175
  H           0.64317162973002      1.99590220128225     -1.14988924148221
  H          -2.50034783537761      2.07650846062577      1.11791785743990
  H          -2.41274833223030      2.59263939902639     -0.54676957657728
  H           2.60128349871991      2.86520941746866      0.05113930267779
  H           2.07406208274401      2.06998115830992      1.52717302338559
  H          -1.48367041552728     -0.80544245783334      2.29545695420649
  H          -3.03049494653907      0.01649731188717      2.16485250821659
  H          -2.94800775079113     -1.73114661916267      2.00703057623918
  H           2.62153126901449     -2.69416764883655      0.15762663802589
  H           2.62729057871499     -1.75660428538826     -1.32384865293642
  H          -4.39534898403969     -2.40416296671330      0.01769304802423
  H          -5.15948922602379     -1.11131539744792      0.92393977812036
  H           1.73774198039105      0.00039714257480      2.50246988653603
  H           1.88386237543166     -1.73805298503791      2.25940665980111
  H           3.32438711897901     -0.72478486428371      2.29733261906392
  H           4.81348621836755     -1.71528645962425      0.81335822088091
  H           4.93464428303563     -2.44421293804093     -0.77817002267488
  H           4.47219829767620      1.79996351766443     -0.77935590974165
  H          -6.72289734634298     -2.02108146765102     -0.78375474798219
  H          -6.32964687506222     -0.33890175340864     -1.15761740001333
  H          -5.56935431897187     -1.65118976484520     -2.06687596245155
