18
Coordinates from ORCA-job 10725382 E -476.334271102313
  O          -1.24331263783748      1.98204311042979      0.55614394375956
  O           2.37542157494304      0.83848695927960     -0.13297682348300
  O           1.83967495081205     -1.22700644369730     -0.73414727067654
  N          -0.47318642160006     -1.28280086772936      0.78904629202985
  C          -0.73498031418954      0.92206829760024     -0.24358388035159
  C           0.22104749260948     -0.02092008146761      0.57719761109817
  C          -1.80689399148209     -0.04370836712833     -0.75327228170874
  C          -1.86111008638860     -1.11102657333703      0.34535962577003
  C           1.53975270095284     -0.22462500020466     -0.14885126316600
  H          -1.79435509146684      1.61376899268369      1.25734677746584
  H           1.99718290615529      1.56043758811682      0.38831449873595
  H          -0.00478827343740     -1.99667292610431      0.24114728896992
  H          -0.21146803973818      1.42233736128878     -1.05714394100587
  H           0.42917260182884      0.48383040711895      1.52872491163476
  H          -2.74861666152880      0.47310576736183     -0.93954820645244
  H          -1.47042013091294     -0.49734930683664     -1.68831544911715
  H          -2.27378169375732     -2.06193143540043      0.01129880669167
  H          -2.47931888496228     -0.77233148197401      1.18543935980556
