16
Coordinates from ORCA-job 10721 E -363.748694076144
  N           3.00116625304288      0.52674363171025      0.12969793094612
  C          -0.15140879069947     -0.96761737937245     -0.01201813290989
  C           0.43013688418136      0.31198431896186      0.04021420023255
  C          -1.53984677057467     -1.04311636175212     -0.05897347757424
  C           0.70151161841363     -2.20262114508632     -0.01661287645811
  C          -0.35979633478614      1.46498944882474      0.04465669625438
  C          -2.32852154849042      0.10102685413470     -0.05470068068206
  C          -1.73997988236891      1.35885392058920     -0.00285621806717
  C           1.85235689940469      0.43861557275324      0.08977768212416
  H          -2.00987518166863     -2.01778714403576     -0.09961044999828
  H           1.32419794678937     -2.25390743146277      0.87922910347744
  H           0.08572767937126     -3.09981195125170     -0.05964787059161
  H           1.38042780437929     -2.20857495144768     -0.87215839069578
  H           0.11955101981652      2.43357588590536      0.08547466499775
  H          -3.40639034040913      0.00889583859140     -0.09202775060369
  H          -2.35154925640163      2.25106689293808      0.00059256954844
