82
Coordinates from ORCA-job 10721020 E -1771.253467661447
  O           0.46552614386754     -3.09994785354995     -0.36639819846351
  O          -1.45519861065507      2.74730664987828     -0.70922127178554
  O          -8.00950038361570     -0.57118250871593      0.14542806933474
  O           0.43417843233659      2.69231193667817      1.21518404030722
  O          -1.89819681574193     -2.70059309241501     -1.19451900956894
  O           6.75587037579751     -0.66114264164893      2.10008684307060
  O           7.33881794070601      2.52350195793092     -2.08748386626590
  O           6.16994427086376      0.77207817834067     -2.75513255778725
  C           0.61930823475557     -0.70312547792821      0.23432802461352
  C          -0.32008054473315      0.35340881013241      0.91881196331257
  C          -3.76603445595236     -0.52403683350636     -0.72643400802737
  C          -4.42955436070927      0.70031821664197     -0.02393656010088
  C           1.92790459881856     -0.61881860635189      1.09912939271434
  C          -1.64973442491814      0.53233862146524      0.20596120220628
  C          -2.29977679394004     -0.55582250847468     -0.26517076344389
  C          -5.97925917351485      0.83535911798757     -0.12376341297278
  C          -0.17358151973961     -2.01454525744647      0.24669723349120
  C          -3.66812561764540      1.96229686434687     -0.39635767192481
  C          -2.24756760365003      1.92652678593468      0.14322850380238
  C           2.01179400018909      0.89172052722175      1.41773286550171
  C          -4.49769739724652     -1.79295767246655     -0.22801457514155
  C           0.65564809936197      1.50435321999991      1.15649177998707
  C          -1.53359408049186     -1.80621660818243     -0.44643621054820
  C          -6.59445587903838     -0.51381051989304      0.32570807662635
  C           3.27764123693289     -1.10939169128981      0.52362321654311
  C           0.91862155999734     -0.27588728419341     -1.21041546201032
  C          -6.00931112830791     -1.70543387278980     -0.40377261992013
  C          -0.71518503515226      0.00676627181530      2.40058326090605
  C          -3.78336922138489     -0.47939837889536     -2.26860359483157
  C          -6.49152231693346      1.24611783804458     -1.51121114720259
  C          -6.43477948386040      1.91206650551652      0.87895018084807
  C           4.38898160812711     -0.80416161916148      1.54765634156926
  C           3.31974007847579     -2.58602946720961      0.13892600361501
  C           5.83603848468531     -1.03626028852111      1.07145008067760
  C           6.09940122962395     -0.28398533589438     -0.19475418071704
  C           6.62109462531111      0.92837743122193     -0.39819931771857
  C           7.12773194665208      1.87582797890876      0.65636528673344
  C           6.67336151528387      1.36608147285270     -1.83993976175836
  H          -0.21274590536795     -3.49537723001008     -0.94544366287310
  H          -0.71489339007628      3.07061165889594     -0.17332374800312
  H          -8.42606642749348      0.07751021087811      0.72147749230615
  H           6.56204811806099     -1.19222927034701      2.88021098596949
  H           7.71273194252770      2.88579897631687     -1.27460154234184
  H          -4.24725821657409      0.52324780203390      1.04595990304474
  H           1.74960942241287     -1.17752369866539      2.02262231231743
  H          -0.38988936454390     -2.27667299452636      1.29118695347789
  H          -3.60965903874150      2.07469046102536     -1.47766709623660
  H          -4.14920524480326      2.86263000452264     -0.01919766482292
  H          -2.23758747282506      2.34055168168947      1.15947427614474
  H           2.31007520830320      1.11884900580021      2.44190700496625
  H           2.72871579115708      1.40210520519858      0.77097884533654
  H          -4.11955133267014     -2.67003994702539     -0.74482403193808
  H          -4.27147018723418     -1.92921351833237      0.83629608983597
  H          -6.36300346587056     -0.62919672281342      1.39567305282650
  H           3.48008515306682     -0.51328168648551     -0.37095420156856
  H           1.46608941436511      0.66675379928594     -1.24735340223451
  H           1.52074596849614     -1.03419781459264     -1.70600971959956
  H           0.00743586152112     -0.13707154126567     -1.78897385441955
  H          -6.27740283403088     -1.65231563692342     -1.46088148871247
  H          -6.47888373124477     -2.61132848045466     -0.01547470286926
  H           0.15039912920358     -0.14816429964863      3.04250199249411
  H          -1.28657236698200      0.84117556271468      2.80786382701915
  H          -1.34354960192906     -0.87823351353929      2.44073992685215
  H          -3.35099180494971      0.44362358142631     -2.65160960439335
  H          -3.19787514124951     -1.30994341356531     -2.65683962224339
  H          -4.78890030988452     -0.57128928138572     -2.66827341320943
  H          -7.54715262033379      1.50984608601631     -1.45449037289335
  H          -5.94831515166280      2.11557295880199     -1.88320887036241
  H          -6.40286484442391      0.45383801931236     -2.24868268615041
  H          -6.03945040694287      1.71762886577344      1.87912048764239
  H          -6.12019292235872      2.91062358320422      0.57770994293569
  H          -7.52487245861805      1.94435775897354      0.94535468532220
  H           4.35096573432133      0.23645826733988      1.86988603084676
  H           4.22321169896250     -1.42341265396002      2.43871641596444
  H           3.10347283814111     -3.21946126164981      1.00376555520768
  H           2.59044563471892     -2.83097829533817     -0.62355798673934
  H           4.30711692781766     -2.85847682415840     -0.23549839489878
  H           5.97972786462705     -2.09867652286323      0.84858079393638
  H           5.76644983725812     -0.79979478273202     -1.08855827536177
  H           6.97870528353158      1.47189167722200      1.65100479289174
  H           8.20254726171506      2.06075379273724      0.54602593177505
  H           6.61356861604829      2.84017256472973      0.59253286708707
