17
Coordinates from ORCA-job 10722 E -384.831130324169
  O           2.81507080931224      0.79478251140789      0.11675271067933
  C          -0.33818856004691     -1.01441041583568     -0.01368867466897
  C           0.54396031163061      0.08090573901501      0.03000202826057
  C          -1.70591819891410     -0.74999294454223     -0.05553077661591
  C           0.04724451621064      1.38774117059173      0.03076819380151
  C           0.13813662044999     -2.44517860652098     -0.01654139226469
  C          -2.19285253007383      0.55047999019869     -0.05463920315527
  C          -1.31387118609520      1.62815580671518     -0.01131763173126
  C           2.00934025700831     -0.10827307738640      0.07604336852215
  H          -2.40112893995104     -1.58000640525415     -0.08936916421781
  H           0.76012387919677      2.20089912106305      0.06515795933203
  H           0.71509504172982     -2.68435964232205      0.87896638957530
  H          -0.71307946944027     -3.12409608116622     -0.05255079049262
  H           0.77168816219437     -2.66210617964598     -0.87886754520324
  H          -3.26144911133361      0.72212379178596     -0.08783620328814
  H          -1.69080866308127      2.64248765914498     -0.01055866812440
  H           2.36116406120346     -1.15601243724880      0.07173739959143
