30
Coordinates from ORCA-job 10727728 E -766.484842109775
  O           1.69545368714351     -2.79340428449645     -0.32375368069885
  O           2.98641839562100      1.69857320898554      0.38232072350176
  O           3.64894056772608     -0.81366162562064     -0.04162417823220
  O          -4.42457617039679      1.56578927041505      0.46062622590205
  C          -0.38657803156613      0.16991520849795      0.20259321157255
  C           1.35761136409982     -1.49426738753858     -0.06583129637759
  C           1.93741429487856      0.82633174216070      0.27421820252559
  C           0.59785407878285      1.16087300383015      0.34428301787404
  C           0.01643452918072     -1.15287495096597      0.00401149369223
  C           2.33315036793320     -0.50071702839635      0.05904411572417
  C          -1.77970875193667      0.57141968492223      0.27668374345411
  C          -2.87210405554694     -0.19707282881739      0.14795405323845
  C          -4.22793187254643      0.38227398271183      0.25127140604603
  C           2.42614002904733     -3.46755826825098      0.70467539826407
  C           2.69647746370848      3.07713432807395      0.56231266628875
  C          -5.37677137980249     -0.58795907953822      0.07996432717041
  H           4.15021182932599      0.00857450401981      0.05908814657342
  H           0.29219779304956      2.18451298828020      0.50348724769630
  H          -0.70556088917850     -1.94927144144513     -0.10689910876975
  H          -1.96233826054739      1.62710742484360      0.45739965804701
  H          -2.79957016300976     -1.26215908361291     -0.03808096925381
  H           1.85411244510677     -3.46946875950587      1.63743126200481
  H           2.55810312149933     -4.49038331226037      0.35824998065417
  H           3.39988671916272     -3.00618685026990      0.87018657237176
  H           2.14711205784568      3.24359092745575      1.49254438611150
  H           3.65688878383176      3.58397431940612      0.61133336959749
  H           2.11780900001418      3.46841561564833     -0.27842398425009
  H          -5.31592222751062     -1.38027923992574      0.83126163360910
  H          -6.32491433585480     -0.06390341898477      0.17419156786638
  H          -5.31762639006101     -1.07200364962195     -0.89888019220385
