78
Coordinates from ORCA-job 10740654 E -1246.153483092534
  O           2.49189206384409      1.48943978023682      0.92531956278697
  O          -2.68257895899686      3.07350834736687     -0.11083300936116
  C           3.49801512888185      1.50774011187848     -0.11222961359946
  C           3.32594410987050      0.26990607431176     -1.00893761088628
  C           3.36272721371276      2.80800456826343     -0.90997756920116
  C           3.30558911954942     -1.06143938283040     -0.26403911819906
  C           3.01825375939366     -3.61165651150755     -0.48059169924310
  C           3.07524278189706     -2.25102309808255     -1.19147824753010
  C           1.96764914750018     -3.66460540504075      0.64322981457783
  C           1.97406326207788      2.95610041861192     -1.52266139502765
  C           0.53177359158413     -3.37216935996072      0.20902867715928
  C           4.82130436606624      1.48596482438359      0.64007488087523
  C          -0.41914515895839     -3.22873060209665      1.39700946938416
  C          -1.90337058392959     -3.04757118586260      1.03477412106580
  C           0.89639101976829      2.57833088712175     -0.53906258160605
  C           1.20334248553328      1.83970711842466      0.60452658230482
  C          -2.11538199081173     -1.86000016629787      0.08565778334040
  C           2.82173206236717     -4.73730425601263     -1.49854873249890
  C          -3.56720050963799     -1.40968728969530     -0.06244830998192
  C           0.20669628858134      1.46188547140935      1.51821969892667
  C          -2.50772704873472     -4.34137132644223      0.48065892920135
  C          -0.42301987148404      2.96185995971911     -0.74871875682342
  C          -3.71903495842719     -0.26544802424351     -1.06172796688772
  C          -1.11609300315966      1.86669572595206      1.29713423767006
  C          -5.15417597342266      0.22422696844157     -1.29183394863555
  C          -1.41085805837219      2.62539968502094      0.15856775986299
  C           0.58381952967921      0.64663317969210      2.72835854796068
  C          -2.23078738101491      1.52788725571417      2.25248193323622
  C          -5.18626069345133      1.25691730984599     -2.42015526702748
  C          -5.79055420798409      0.80009271880561     -0.02502314323519
  H          -3.28199503907554      2.79545897802899      0.58931781441250
  H           2.39019373938261      0.36324790825403     -1.56521571577926
  H           4.12947073703683      0.27721744207751     -1.75267420986370
  H           3.55063661159785      3.63801599457416     -0.22407702578957
  H           4.13393957810136      2.84445494373520     -1.68221539999308
  H           4.24340859658361     -1.21184884764413      0.27827210286848
  H           2.51840096143881     -1.01651707275144      0.48952759018034
  H           3.99315587644551     -3.76746803107759     -0.00208755325106
  H           2.15017509990173     -2.09647298677024     -1.75666057763881
  H           3.87588385102011     -2.28589073232884     -1.93855431668878
  H           2.00637585516339     -4.65522639228287      1.10877068680166
  H           2.24889404367196     -2.95746830882547      1.42862037895930
  H           1.82147412104159      3.98430392953713     -1.85819859681611
  H           1.88670151206780      2.33223011977411     -2.41780482920631
  H           0.50760244596067     -2.44907364775430     -0.37306791758942
  H           0.18153875763293     -4.16405844990249     -0.45779527183153
  H           4.87401531846680      0.63156965579091      1.31308423723286
  H           5.65543508018343      1.42901138080245     -0.06129495877365
  H           4.92728323262421      2.39318245602004      1.23564553859674
  H          -0.32037376902609     -4.10459039877717      2.04791187069297
  H          -0.09467691855343     -2.36910084447212      1.99233772294556
  H          -2.42743149753546     -2.81669029430403      1.97084606311314
  H          -1.51897460735797     -1.00958728090971      0.43364340020421
  H          -1.72332861497017     -2.11548136002445     -0.90419546630612
  H           2.80135486916837     -5.71417006168337     -1.00986914462424
  H           1.88399373191014     -4.61865030673570     -2.04616821996078
  H           3.63062231331865     -4.74613423835536     -2.23263373925726
  H          -4.19136821661221     -2.24807923474533     -0.38680068973605
  H          -3.94631894243731     -1.11261008514438      0.92055422209286
  H          -2.33359303742249     -5.17621867439100      1.16331833172442
  H          -3.58524044564386     -4.25369091860092      0.33671854820424
  H          -2.06812089335657     -4.60265579084055     -0.48486215429228
  H          -0.69050265173485      3.54730134442477     -1.61983394986304
  H          -3.09965981397771      0.58128009035450     -0.75216306474819
  H          -3.30932645677174     -0.59225499026400     -2.02371767490898
  H          -5.75549427606422     -0.63984933236636     -1.60194811410596
  H           0.51108806322242      1.23612417508968      3.64689346786147
  H          -0.07000366993235     -0.21906707475599      2.84538066847680
  H           1.60691342312110      0.29175517756545      2.64633315784731
  H          -1.87458078419579      0.97944964996241      3.11921546310342
  H          -2.72130319925406      2.43174850627245      2.63109030824984
  H          -2.99976797523142      0.91234960693653      1.77595153347780
  H          -4.58138957565902      2.12881150723613     -2.15735175024432
  H          -4.78564230865264      0.84047380893624     -3.34715290995435
  H          -6.20493051172919      1.59884655575764     -2.61760717493448
  H          -5.23101068056032      1.67281626153872      0.32438027027839
  H          -6.81404358315559      1.12892126544217     -0.21719974627483
  H          -5.82312788207363      0.07430180046927      0.78841076649960
