21
Coordinates from ORCA-job 10748 E -611.488986813179
  O          -1.30215241553042      1.15742267090797      0.04248989156571
  O           3.38908862666910      0.35290586868681     -0.03622427512860
  O          -3.47625985098365      1.61982897686074      0.08023104830585
  C          -0.49490272173551     -1.10482376056309     -0.00201293804181
  C          -0.26945106698136      0.27637821299539      0.01490932350685
  C           1.01295640653496      0.81305055046068      0.00442748893975
  C           0.62461763389097     -1.95244282742458     -0.03029620951716
  C           2.09979940714589     -0.05318775463595     -0.02368821780818
  C           1.90086712989882     -1.44483419709002     -0.04108002586019
  C          -1.85231165178037     -1.55426716845498      0.01074072727453
  C          -2.87371911279276     -0.67487164438771      0.03811739696670
  C          -2.64071433876089      0.75721867655624      0.05571176442347
  C           3.66260689121894      1.74764185173163     -0.02061732868921
  H           1.12168244343170      1.88612480975769      0.01853290585557
  H           0.46885682498131     -3.02410470400941     -0.04369938873727
  H           2.76786222162984     -2.08998467418702     -0.06284036085653
  H          -2.04708915144919     -2.62068301866027     -0.00205222640530
  H          -3.90891785641223     -0.98199033118352      0.04837604637369
  H           3.26850766573067      2.21679885914470      0.88476499278691
  H           4.74551726364592      1.83866494481018     -0.03538333616138
  H           3.24215565164828      2.24195665868452     -0.90040527879340
