24
Coordinates from ORCA-job 107526 E -687.135870462711
  O          -0.06099579451772     -1.31857387767178      0.81626003501140
  O          -0.74213466033335      1.20660549205406      1.82113950427694
  O           1.95627943246485      1.42090323204507     -0.50662438499529
  O          -2.08026604663003      0.84747030641671     -1.55576232661538
  O           4.01045340017775     -0.41892823559244     -0.26340972450883
  O          -3.22273432664268     -1.30805003702663     -0.52296999418722
  C           0.25153544589196     -0.14939676950771      0.04742583805753
  C          -0.69977277846029      0.98937002398849      0.41759744312432
  C           1.72156428023188      0.22714543347981      0.21551688438551
  C          -2.11827624055424      0.76473090174117     -0.15665843112636
  C           2.65492310382168     -0.87028662095150     -0.28577047932605
  C          -2.76478860747178     -0.53067003798136      0.27830648176987
  H           0.40840402525923     -1.26672312040841      1.65750449934603
  H          -1.01054334941784      0.38312102910390      2.24518241395107
  H           2.90938390779927      1.46623061375859     -0.66460994908160
  H          -2.55667702733791      0.06954253475886     -1.89043926716427
  H           4.33411748205518     -0.44056895550418      0.64422132993880
  H           0.07206137537049     -0.41266816695202     -0.99620710582046
  H          -0.32662686287565      1.91109009775446     -0.02448403199895
  H           1.91165976374333      0.39840436013153      1.29050371805601
  H          -2.74277698216671      1.56750742836065      0.26741597458780
  H           2.43114947378507     -1.08342009844341     -1.33214438210549
  H           2.52900700130797     -1.79115390840152      0.28895002422644
  H          -2.84830501550045     -0.71396762515235      1.36370593019817
