83
Coordinates from ORCA-job 10766328 E -1398.717575036903
  O           6.58249027564065     -1.35509101178520     -0.88775005661678
  O          -4.77615279072128      3.00668916691950      1.26673426524057
  O           6.89320948853782      0.84297404590264      0.74479305401436
  C           0.33108299251248      0.90335284037502      0.17999667432413
  C          -1.08783872890628      0.81601672488050     -0.54859904152326
  C           0.99107596293792     -0.51416207772906      0.12884194952867
  C          -1.97329400049662     -0.20124690339118      0.24747517220664
  C           2.50593361967366     -0.60567235692119      0.53749436903166
  C          -3.41523980229585     -0.18636826810137     -0.25922845888584
  C          -4.06121996360963      1.21438713532901     -0.16821374556080
  C           3.25841011424805      0.42959888511738     -0.35551559801480
  C          -1.77571548819830      2.20687626959862     -0.61273306627082
  C           1.24158391859134      1.92187329848870     -0.53510843535611
  C           0.09995885356758     -1.55978986125282      0.81285947506200
  C          -1.32802042994860     -1.58696373812367      0.26448335569073
  C          -3.25287870996970      2.18010445769770     -1.03266071651779
  C           2.71081879572355      1.83923627239360     -0.12757905160845
  C          -4.46316887024453     -1.13248722144171      0.36698233051488
  C           4.81818606210878      0.34065194170513     -0.41588284179286
  C           3.01620494832776     -2.01538156135816      0.15966415823799
  C          -5.48527753490583      0.90951984584729     -0.65115627209271
  C           0.16044350747345      1.39354284247488      1.63446190843886
  C          -0.94365648870167      0.35183469659197     -2.01602218283980
  C          -5.82615805499515     -0.44967417877673     -0.00312865959457
  C           2.72495558432638     -0.41648709434100      2.05274758001607
  C           5.18290488516938     -1.12261293003338     -0.77596075080743
  C           4.53726689439039     -2.13521122104845      0.15887534493944
  C          -4.13206248570470      1.72963007560616      1.27740547747055
  C           5.46160141244243      0.78986280199621      0.90143057707050
  C           5.33431042075747      1.24707307979031     -1.54938965006399
  C          -4.43088084160285     -2.57593742299870     -0.07299925346155
  C          -4.33223171215808     -2.85488479118180     -1.54715897657276
  C          -4.53402928949663     -3.56534449274789      0.81195835146108
  H           7.03490057128270     -0.76526985729112     -0.26716014762109
  H          -4.85277094876503      3.31878014464327      2.17325939288427
  H           7.29000636586700      1.02835184641402      1.60157877669287
  H           1.01723876064256     -0.78321922119686     -0.92899987016754
  H          -2.00199140238790      0.13638869146320      1.28550583379557
  H          -3.39906093373662     -0.41775347225706     -1.32736763753614
  H           2.96106850304174      0.16060469608380     -1.37765516535791
  H          -1.71326197757025      2.71038477294908      0.35019069533831
  H          -1.22644727555962      2.83958591187828     -1.31264334129557
  H           1.19912242069849      1.76665000032730     -1.61399087125158
  H           0.86884101102584      2.93229856998391     -0.35295069864122
  H           0.53411405098096     -2.55269884186709      0.69577562485715
  H           0.05606218659107     -1.37806582735789      1.88893860506458
  H          -1.92989026238305     -2.26375261809656      0.87062167675979
  H          -1.32687449486972     -2.01223894597679     -0.74229790884277
  H          -3.34893721730490      1.87201758707757     -2.07699744059175
  H          -3.66311572994982      3.18856413746366     -0.96489701544164
  H           2.83904625428121      2.14308656710060      0.91311603778211
  H           3.26930475080485      2.56368861031087     -0.72005542634335
  H          -4.34667347320408     -1.12386052207951      1.45322432532619
  H           2.59747845525055     -2.75940554487108      0.83907546643614
  H           2.64699221128551     -2.26594426658974     -0.84115175586002
  H          -6.19273593414640      1.69531441528349     -0.38978889091539
  H          -5.47886047583584      0.82027936244584     -1.74062852122341
  H          -0.25615544914002      0.64122226851816      2.29900854982543
  H           1.11439978419167      1.69500361122404      2.05628151910879
  H          -0.48588017722533      2.26765617704460      1.68226666822084
  H          -0.50324104409866     -0.63472787712102     -2.12552647043126
  H          -1.91456959296118      0.31795099648689     -2.50548874710634
  H          -0.33553412154889      1.04971140200518     -2.58924976826625
  H          -6.40991170616405     -1.07836424270348     -0.67516032314867
  H          -6.42925939623409     -0.32420476473097      0.89654250555557
  H           1.89170448992547     -0.82973180758083      2.61848330320930
  H           3.61650064549782     -0.94168310224988      2.39022732197316
  H           2.83243253709284      0.62424297438061      2.34787817371501
  H           4.77643111423054     -1.29761342857919     -1.78006397142100
  H           4.94588788490891     -2.01847401951205      1.16650206296868
  H           4.83223941681475     -3.13396854485186     -0.16931805187695
  H          -3.13341183138553      1.82220735950164      1.70981143951779
  H          -4.69705688598490      1.03061872558850      1.90126874786139
  H           5.21733384500584      0.10873394099151      1.71434326372509
  H           5.09032813665301      1.78427580448085      1.16565872309369
  H           5.28249337212667      2.30334108108752     -1.28577308476011
  H           6.37083592893760      1.01539988433785     -1.78134254471817
  H           4.74166708169160      1.09007144431872     -2.45317007151452
  H          -4.50750124022486     -3.90890352705976     -1.76038996603439
  H          -5.05532584525957     -2.26487355942739     -2.11688617670667
  H          -3.34314924706041     -2.59303310806762     -1.93091010176389
  H          -4.55955821885216     -4.60412130183880      0.50563480229610
  H          -4.59408644144967     -3.36717183156670      1.87572316716197
