55
Coordinates from ORCA-job 10788149 E -1528.890229807575
  O          -2.84097903973918      0.94036764829341      0.28752312079252
  O          -1.46737994131538     -0.82904923251306      0.68830876920901
  O          -6.15731075206466     -1.53795569529649     -0.13827618748093
  O          -6.27998169139091      1.19885014787404     -0.86912189164272
  O          -3.47840543844396     -2.63750034586693     -0.15326919899834
  O           0.10755537843336     -1.34668168199195     -0.86397308248353
  O          -2.86991884185004      3.66501608741582     -0.35277521102373
  O           4.73054941295820     -0.95843960315199     -0.08505634394285
  O           3.96441449978150      1.86476346963012     -1.12056191924618
  O           4.03907860838725     -1.88150864077789     -2.01859525343780
  O           4.65523270789378      2.04617434995839      1.01469658002141
  C          -4.97978670896476     -0.79706451299885     -0.43643710889324
  C          -5.19936676965956      0.68235272279192     -0.11665991851554
  C          -3.73454819988914     -1.31433614265132      0.26466655338061
  C          -3.94720868456853      1.48990578264845     -0.44242682414475
  C          -2.56271555801354     -0.39390364091670     -0.06997410192084
  C          -0.22380972258531     -0.43326175425506      0.21424170270098
  C          -4.05065520606754      2.94729169993233     -0.03866208298057
  C           2.21360116293518     -0.15453830485266      0.75942367865423
  C           0.82656807357361     -0.43902342056917      1.28817872823977
  C           2.43531171402930     -0.96415013315082     -0.49752823218378
  C           2.38466236695838      1.38049557168486      0.56502652520304
  C           1.40335954458207     -1.49521283265067     -1.17035005505844
  C           0.51156482157723     -0.63544374277897      2.56589085246785
  C           3.78076741943934     -1.31949522622552     -0.97876724449487
  C           3.79151065357053      1.79728048265787      0.21324589500988
  C           1.43923646479074     -0.61524957967267      3.73732162557853
  C           6.08056323627827     -1.28465413039800     -0.43467542710814
  C           5.27888507320730      2.23223696423704     -1.56439418675315
  H          -6.11383761738425     -1.85552024993891      0.77103584631435
  H          -6.99500092577675      0.55065610463963     -0.81632058383047
  H          -2.61238819976276     -2.89098715166694      0.19114065955903
  H          -2.13937589719604      3.22084942631152      0.09355902188510
  H          -4.84049921003499     -0.89997461154897     -1.51673910845748
  H          -5.40052415096216      0.78047094599492      0.96094843002536
  H          -3.87886866770186     -1.26413025620988      1.35535155953525
  H          -3.74249390141402      1.42811329686382     -1.51933235333143
  H          -2.33496898168906     -0.46060224709211     -1.14290502822669
  H          -0.29717807271440      0.55756898120452     -0.24793675030121
  H          -4.27567278536571      3.00437510826816      1.03424328120984
  H          -4.86764049356809      3.41289296749301     -0.58682534432377
  H           2.94913482042471     -0.46835339084007      1.49625767242456
  H           1.70307127287372      1.72952562533318     -0.21051601118751
  H           2.13389268141106      1.86795647546594      1.50648181836620
  H           1.55413076469189     -2.12727731567535     -2.03481323368468
  H          -0.53153153173285     -0.81865508047406      2.79626350005524
  H           1.11311955114686      0.13575282101713      4.46269448622186
  H           1.41774374663571     -1.57763634532965      4.25689095613497
  H           2.47133090497206     -0.39615691692549      3.47039078335543
  H           6.69937082163121     -0.81393703106675      0.32432906117499
  H           6.22224223830367     -2.36544915426163     -0.43001119641434
  H           6.32331867615721     -0.90392106681497     -1.42580309547635
  H           5.50473725252164      3.25641825336050     -1.26828109329217
  H           6.02522852583413      1.56707527612327     -1.13435268528976
  H           5.25883959485554      2.14122922936366     -2.64663335339477
