50
Coordinates from ORCA-job 107971 E -1489.144333759811
  O           3.67854843754958      0.85957956247953     -0.36135909030242
  O           2.88467117923358     -1.18898641478305     -0.97368112469561
  O           7.36924262322042     -0.60055766461250      0.61020180885925
  O           6.61010949748836      2.00973009847017      1.45265096038531
  O           5.20105193915198     -2.44155594451994      0.18995676951241
  O           2.84352637775607      3.52182624672400      0.47962789927432
  O          -1.14167491580583      0.83132715084373      0.58039577277078
  O          -3.40251652267206     -2.04608742807432     -1.22569806429023
  O          -8.88549451494336      0.77111716228601      0.51664838127746
  C           6.00834256306957     -0.23543082138394      0.76921639251077
  C           5.89023787410971      1.25470644024504      0.49177883596140
  C           5.09733363604664     -1.06182974406340     -0.13352569303410
  C           4.41874542583591      1.65829063168866      0.55936715523819
  C           3.67548464796096     -0.51343514833748     -0.04756657942896
  C           4.17550825315958      3.11238648504780      0.20067096423852
  C           1.52382201632962     -1.11251938214034     -0.86347203081889
  C           0.86372125932819     -0.11752717253348     -0.16344250870867
  C           0.81111945330555     -2.12297413927124     -1.52760577068959
  C          -0.52781206377879     -0.16285174673491     -0.12184488461208
  C          -1.26632002573793     -1.15543945763467     -0.76086230638753
  C          -0.56111124352769     -2.13711188367150     -1.47277734992520
  C          -2.73504729768265     -1.16591920807663     -0.69804578101505
  C          -3.31950682041133     -0.03265015915687      0.04116309793038
  C          -2.48904220650487      0.85162289321581      0.63275963328587
  C          -4.77908854579161      0.15096973472057      0.14151848587410
  C          -5.34801127223989      1.42541264757551      0.04649052897519
  C          -5.63536062298031     -0.93385260826414      0.34764654769922
  C          -6.71238491681718      1.62343371979022      0.17791277088131
  C          -7.00228651001824     -0.74654391320811      0.47938842090302
  C          -7.54641385384988      0.53239244136886      0.39858302071403
  H           7.41995414233884     -1.56466311869215      0.63881062617456
  H           7.50195941023170      1.64328389183139      1.49897007541116
  H           4.74187682467850     -2.60982311969537      1.02238424027308
  H           2.77077972670712      3.71941241110507      1.41922193271972
  H          -9.35123339822816     -0.06339470286148      0.64203662837663
  H           5.70071039944072     -0.39994857767985      1.81495258594320
  H           6.26756669263047      1.45403408897675     -0.51975345400472
  H           5.42648120937083     -0.97560732749223     -1.17022046633091
  H           4.05562548564344      1.47951844710601      1.58313058785740
  H           3.26209628475792     -0.65859991957874      0.96695841765473
  H           4.31786810811177      3.23562669869985     -0.87407511594014
  H           4.90895452092702      3.73198968394404      0.72217729245993
  H           1.38293481916234      0.71155432518563      0.29167678677288
  H           1.36647531354929     -2.87832441169159     -2.06606356097178
  H          -1.13571206170066     -2.90652611698870     -1.96989894503408
  H          -2.83559029128259      1.68282748898850      1.22982101400727
  H          -4.71372680507153      2.27827314551142     -0.16033840430003
  H          -5.22729047610223     -1.93159427363238      0.39680322256780
  H          -7.14560173321709      2.61094835147156      0.09371224692903
  H          -7.65055502273178     -1.60101034249711      0.64150802705106
