16
Coordinates from ORCA-job 10795 E -308.834542895804
  O          -0.75318377581714      0.55374595938592     -0.53403490480163
  O           1.28525853843076     -0.38492900132110     -0.12031898649723
  C          -0.06334547747713     -0.43711767348813      0.21677272772358
  C          -0.56684855478682     -1.83064298973523     -0.09545685635055
  C          -1.96014881522132      0.99670967688125      0.04846791716043
  C           1.93311015783764      0.82066143822709      0.25491047503463
  H          -0.19161381595375     -0.19888657029213      1.28875033710637
  H          -0.03050599529927     -2.56857374579336      0.50157112158121
  H          -1.63183644251180     -1.91192721623148      0.12484568497291
  H          -0.40575468930853     -2.04044732629623     -1.15295803753531
  H          -1.80054062635952      1.36582030911077      1.06991438994233
  H          -2.33161051467499      1.81293935285263     -0.56921701777208
  H          -2.72043211634406      0.20716237534497      0.07889739793842
  H           1.83522287550750      0.99684783724594      1.33369175660206
  H           2.98605659516558      0.70077817833420      0.00689749093054
  H           1.52402865681287      1.67661539577490     -0.28545549603567
