51
Coordinates from ORCA-job 107982 E -983.680512666437
  O           0.74007193650907     -0.21204425878748     -1.58303578729902
  O           4.99623919394474      2.25028869298371     -0.12954283673828
  O           6.88157147065158      1.11878409290509      1.30733470160085
  N           1.43163115291911     -1.82513986924001     -0.14873790016252
  C          -5.69122793134078      0.08482560392671      0.44011962772155
  C          -6.99113834572126      0.10527093117810     -0.36103498058715
  C          -4.47121504593790     -0.26330399969583     -0.40954759058306
  C          -8.26193062043827      0.34831605034520      0.46281201632037
  C          -3.16566173071442     -0.28198194925597      0.38131857099971
  C          -1.95018374206830     -0.62470795295223     -0.47485696188045
  C          -8.26565047793737      1.72321561588406      1.13408186159121
  C          -9.50633382381136      0.17487782209929     -0.40942602318355
  C          -0.64821710596078     -0.64783435677455      0.32534054134462
  C           0.56466780087540     -0.86283284969935     -0.56329492366541
  C           2.70585104311251     -2.07419959183596     -0.81636201401285
  C           3.84384409917696     -1.25918862400959     -0.25433532586040
  C           3.87772123180193      0.12184058228901     -0.48205270726797
  C           4.84455923805812     -1.84286680644854      0.50361011404352
  C           4.89041364747473      0.90946481015354      0.04344687842774
  C           5.87024846492197     -1.05997132242637      1.03332479164115
  C           5.90389609566663      0.30545490853088      0.81420520972012
  C           3.99888270754922      2.89690060260213     -0.90371455115040
  H           7.51257033968543      0.58485493452303      1.80283224887585
  H           1.29642890496657     -2.22066701596068      0.76645749489370
  H          -5.52678616899932      1.05722367673312      0.91356503688171
  H          -5.78222699033297     -0.64100878962567      1.25684054811072
  H          -6.92416088860579      0.87238884908690     -1.14235439370249
  H          -7.09415036669613     -0.85133763756729     -0.88512019754247
  H          -4.62365873543093     -1.24155079128416     -0.87931267034760
  H          -4.38439824531301      0.45646183204719     -1.23105008056878
  H          -8.29514002983271     -0.41308343881121      1.25233310617127
  H          -3.01228132850496      0.69689509597017      0.85009241181160
  H          -3.25235447110237     -1.00187988585126      1.20365418992056
  H          -2.09823843784078     -1.60065356956627     -0.94883166656363
  H          -1.84362968346939      0.09861635944384     -1.28561978342741
  H          -9.18842377180894      1.87978848062145      1.69699206196862
  H          -7.43193225394638      1.84367237299267      1.82686670659398
  H          -8.19538034396062      2.51691389079281      0.38408981605892
  H         -10.42093452286224      0.30574424969916      0.17313342467154
  H          -9.51832848818459      0.91319521987216     -1.21656062310458
  H          -9.53645295472443     -0.81702261668525     -0.86591953048674
  H          -0.50788792563206      0.31849283286458      0.82079692723432
  H          -0.69785174800077     -1.40591491383459      1.11200153661046
  H           2.93106840564480     -3.13831093556151     -0.73281279074194
  H           2.55075533763543     -1.84225266264462     -1.86937281587179
  H           3.09226311591648      0.56331690726879     -1.07751840518338
  H           4.83913094359473     -2.91059732179723      0.68578802108441
  H           6.65562201870191     -1.51952896429606      1.62408676331991
  H           3.00663658865913      2.77297764598309     -0.46048792891877
  H           4.26574401797478      3.95093511950538     -0.91183490258460
  H           3.98082042373771      2.51564894430961     -1.92874221618321
