39
Coordinates from ORCA-job 108125 E -847.308397011232
  O           0.01624545473842      2.87516587008985      0.98220372718832
  O           2.61480998857790      2.36305621054938      1.17129538726280
  O          -3.94513345486616     -0.17807472315535      0.30539075746084
  C           0.53303968645527      1.85072471533571      0.15674708250505
  C          -0.36677940660850      0.64092972477432      0.15845494977693
  C           0.17375773372008     -0.63651787790206     -0.04662918272858
  C           1.62895820725293     -0.82240350269164     -0.07448459437747
  C           2.19190224449323     -2.20506302549143     -0.33744806236122
  C           1.95658346263712      1.51173128324955      0.59080954607055
  C           2.45856358423537      0.20475779841877      0.22791408961588
  C          -1.73592167855895      0.81868247942082      0.27672117038474
  C          -0.72417918589226     -1.70972671849875     -0.16064404819179
  C           0.64271647779290      2.37264962911316     -1.29888996202482
  C          -2.09412189058549     -1.56002228212521     -0.05254138345680
  C          -2.59717792600334     -0.26987941725346      0.18301662633052
  C           3.58397363133632     -2.19869633866879     -0.97192264721256
  C           2.19834367915657     -3.02814818443884      0.96306464950119
  C          -3.03250486745352     -2.72590851171465     -0.16556542689080
  C          -4.51934958679315      1.09769297687228      0.55054829596169
  H           0.79768992033447      3.28759209182579      1.38783212622439
  H           1.52347432905452     -2.69965860943039     -1.04593245112864
  H           3.52734465678091      0.06564585693958      0.30778709036147
  H          -2.10788376632685      1.81490281367434      0.45710070499736
  H          -0.34805574153262     -2.70921282962039     -0.32549493481659
  H           1.32183657067567      3.22577313736733     -1.32574419055312
  H           1.00697362549434      1.60020918137244     -1.97649913511214
  H          -0.34737856318280      2.69261150413643     -1.62244517313773
  H           4.34422716874476     -1.82827451125759     -0.28258689610610
  H           3.86559571825249     -3.21626826692036     -1.24840425794482
  H           3.61068586910733     -1.58103052393466     -1.87065711149946
  H           2.89019705438476     -2.58520536331831      1.68204701556759
  H           1.21292718220521     -3.06466811554854      1.42698368297352
  H           2.52251455969360     -4.05133542548127      0.76288706399982
  H          -3.62341400038635     -2.84673587090114      0.74509591199209
  H          -3.74416077056230     -2.58295799721299     -0.98176345361706
  H          -2.48087515545332     -3.64839841780930     -0.34515345065280
  H          -4.15115986848056      1.52418673775839      1.48714985613219
  H          -4.30961104849036      1.79021733099670     -0.26904651562413
  H          -5.59164789394760      0.93295017148028      0.62157514312968
