53
Coordinates from ORCA-job 10813969 E -1714.822150118533
  O           1.30666320779002      2.61721079677921      0.99244794071838
  O           0.67381761841209      0.43484601755061      0.96003142673714
  O           4.98928346642305      1.89524954433914     -0.68782239374109
  O           3.95133936330356      4.54919668425372     -0.56746647600483
  O           2.92814895394697     -0.13475206091042     -0.75614235963327
  O           0.04173037910940      5.09537091354198      1.07005955996040
  O          -1.87376850212506     -1.81146390460052     -0.22724867066592
  O          -1.47239910611154      2.15720401745236      0.54461952014652
  O          -4.05451577456950      2.44145848255897     -0.16989408185416
  O          -6.33082073234705     -1.53677985961848     -1.55108945448296
  O           1.17289242968293     -5.45423954277988     -1.48698700565734
  O           3.17089200458674     -5.41594676913963      0.30313611858674
  C           3.59218840839680      2.15396067898430     -0.57946991396727
  C           3.35791965728098      3.48231798080935      0.14897070995948
  C           2.81034831628947      1.01080595177657      0.06055872816707
  C           1.86191099628904      3.72817347083117      0.28648805506759
  C           1.35059436823406      1.44510205989695      0.23955169625458
  C           1.44917163945634      4.95473705772796      1.07079071713103
  C          -0.53242541327483      0.00028787040168      0.47948209978717
  C          -0.68167137576619     -1.31989185208210      0.20814226949912
  C          -1.63080534972176      0.96778296475691      0.31126279687150
  C          -2.88456413145669      0.37292924279731     -0.17072158798747
  C          -2.94885412389198     -1.00498867303677     -0.42548302957209
  C           0.34238762138474     -2.36844711520066      0.28942041581852
  C          -4.07005441600022      1.11372953166043     -0.40368571414893
  C          -4.08756974598489     -1.65151594314563     -0.88446506739473
  C           0.28593471035066     -3.43714040533147     -0.61551677956548
  C           1.36747398324336     -2.33666646670863      1.24062636457705
  C          -5.21786710821858      0.48376306437323     -0.86296442677561
  C          -5.22357565689341     -0.89267894516323     -1.10171025101299
  C           1.24018416461001     -4.43673829289520     -0.59059816489205
  C           2.32446479313589     -3.34444977277660      1.26772735242819
  C           2.27091639636315     -4.38622162172439      0.35676355240606
  H           5.30125279501559      1.52198164723105      0.14518036006481
  H           4.82972699121834      4.25140295078926     -0.83860134102177
  H           2.47281664072351     -0.86688407949171     -0.31805438700537
  H          -0.34822702008981      4.21852108941791      1.20820944564813
  H          -4.92101342702795      2.81452139600555     -0.37215539250027
  H          -7.05497024148291     -0.91082984051395     -1.66575770579947
  H           1.92116857578252     -6.04774182487701     -1.33734731365552
  H           3.85930913851603     -5.29791219121343      0.96653353938442
  H           3.24924812146746      2.26849828963160     -1.61172670673378
  H           3.78865309999996      3.41178071115664      1.15948642564018
  H           3.20520133265977      0.82022553660905      1.07043844490579
  H           1.41169388868154      3.79125747130481     -0.71384614240712
  H           0.87459202256595      1.58367788172124     -0.73940780082603
  H           1.87304083493536      5.84647214109483      0.60947837842646
  H           1.84409269225232      4.87031965778797      2.09295019454891
  H          -4.08276223608667     -2.71624043358145     -1.06244913330661
  H          -0.49868207059283     -3.49238612097537     -1.35582300944334
  H           1.40851922569772     -1.54058541470742      1.96609951980484
  H          -6.11560412043025      1.06815885139146     -1.03741289956553
  H           3.11358771426678     -3.32064882415928      2.01076657708089
