24
Coordinates from ORCA-job 108104 E -762.895102645551
  O           2.56496889325937      1.12524689578540      0.17587321682494
  O          -2.04660072117212      0.88131438699599      0.10215210308832
  O           2.79291416332486     -1.84485667749760     -0.20063271376215
  O          -4.26964969508765      0.92481280921964      0.06335498101189
  C           0.31662234441458      0.92533170842062      0.15223241194054
  C          -0.87168229526748      0.20527476784741      0.04049231155385
  C           1.53321877439244      0.23995824946505      0.08167568378319
  C          -0.81337461052851     -1.17769592920570     -0.13631778867160
  C           1.63094714257289     -1.14943134138497     -0.08142837953866
  C           0.43470998805317     -1.83242424853148     -0.18660140863299
  C           0.65096769362093      2.31340693663705      0.30549758614472
  C          -2.06670521564937     -1.86595806806811     -0.24965688349850
  C           1.99774999499368      2.36869163499015      0.31246519624194
  C          -3.23410513796018     -1.19627315214890     -0.18761456687844
  C          -3.28203590737793      0.24390805991220     -0.00420558524973
  C           3.88358050117068     -1.47731639274231      0.64818142278279
  H           0.47002952747998     -2.90603914785712     -0.31632972520530
  H          -0.03190141194693      3.14024390036936      0.39273796723850
  H          -2.05883464899590     -2.94096776039105     -0.38765692959803
  H           2.69534327232868      3.18277155761311      0.40079443442409
  H          -4.19187652459145     -1.68841873671813     -0.27058337358370
  H           4.33558229356565     -0.53662255226109      0.33519524277697
  H           3.55287010745707     -1.39599587046115      1.68693246581330
  H           4.60969247194354     -2.28225002998836      0.56016433099408
