24
Coordinates from ORCA-job 10812 E -389.425831411089
  C           2.11032393049849      0.15814591217953      0.02732958872129
  C           0.60509576694386      0.33045363823904      0.01307261594079
  C           2.61487305735185     -0.52963254952678     -1.24716588140352
  C           2.58447219867247     -0.58774971533613      1.28064335556389
  C          -0.24619249023780     -0.77455866431280     -0.02331497146277
  C           0.03600356821471      1.60073937732304      0.03203652585561
  C          -1.63144807285765     -0.63930806820453     -0.03927670112908
  C          -1.34517373896851      1.75783532085044      0.01296712994473
  C          -2.17402112333586      0.64633949804654     -0.02344453238925
  C          -2.52420435261192     -1.85123632000794     -0.04607756924437
  H           2.54498540954063      1.16195868472504      0.05564165172152
  H           3.70567513985885     -0.58762391176243     -1.24771575393893
  H           2.22690092145818     -1.54773384523733     -1.32368644304088
  H           2.29957256485366      0.01540940560915     -2.13833662423664
  H           2.24788921807116     -0.08379086154933      2.18808411045546
  H           2.19504072641993     -1.60795548042760      1.30121774065633
  H           3.67497184995004     -0.64655243059584      1.30463324483095
  H           0.17742161076087     -1.77243024644294     -0.04220314453883
  H           0.67880573375982      2.47280729752325      0.05739055067409
  H          -1.77505852520767      2.75181353325916      0.02268042224313
  H          -3.25004049189116      0.77387733432348     -0.04220950231273
  H          -2.83349882186497     -2.11436801822105      0.96974433570768
  H          -3.43132367815828     -1.67330879937054     -0.62585893061880
  H          -2.01444340122071     -2.71820009108343     -0.46817221799965
