30
Coordinates from ORCA-job 10823100 E -803.613332355193
  O          -2.55338133114684     -1.19005314077928     -0.12950167355724
  O           2.21905592702037     -0.72448785876252     -0.21251131833360
  O           3.25446524870101      1.29115203351975      0.07765924561734
  O          -2.64503741557674     -0.31452296336780      2.02484725124390
  O           1.25520332976282     -2.53141171294784     -1.03118925132859
  C          -0.27962416080396      0.41837278217311      0.64284547547837
  C          -1.65673182440409      1.05182989776439      0.35692519392737
  C           0.90289539518981      1.29291914876899      0.25008153063199
  C          -0.18636576422476     -0.90711013759341     -0.06185875829152
  C          -2.72337689846066     -0.00125423304010      0.66463762416317
  C           2.18213261161767      0.53316418814671      0.50423021332729
  C          -1.80514207230417      1.55710251525250     -1.04885861310579
  C          -1.29168536337140     -1.58978397055428     -0.38683223233754
  C           1.11241011720320     -1.47172926129990     -0.47328182806909
  C          -2.11237401826957      2.80885950338619     -1.36007441911984
  C           4.53079209549725      0.75177302578251      0.40781843342364
  H          -3.32832448018287     -0.96245243666231      2.23473588699005
  H          -0.23312788926021      0.24746489626446      1.72373138283392
  H          -1.82232039204928      1.87753735068911      1.05176943924875
  H           0.86514836823945      1.56319917682036     -0.80643463335962
  H           0.92184555559529      2.21616023732744      0.83123567737142
  H          -3.71981634887064      0.34736134383191      0.38747344066667
  H           2.29328058668311      0.27796363609314      1.56880103522611
  H          -1.64479668421489      0.83333612220603     -1.84193145676546
  H          -1.25323963570678     -2.52824524493732     -0.92187611972291
  H          -2.21076026677902      3.12889251454202     -2.38942831562597
  H          -2.27352590835184      3.56176622001069     -0.59617735412781
  H           4.61059889185960      0.58031230943766      1.48762317915449
  H           4.71048899454699     -0.18550895118064     -0.12086820622216
  H           5.26708333206112      1.49305200910841      0.10506717066264
