48
Coordinates from ORCA-job 108213 E -1525.039148677515
  O          -0.94944332859357      1.17706058361943     -2.01361790295612
  O           0.94888905055530     -1.17526572262742     -2.01351325894043
  O          -3.23611066548175      1.13859998226036     -2.16776308392749
  O           3.23545741927701     -1.13713619958407     -2.16810442843547
  O          -4.97000138700264     -0.15872106433413      0.00475799372943
  O           4.96974556419468      0.16069947292835      0.00501706832976
  O           0.23797789388355     -1.83722509944509      2.13440404025037
  O          -0.23814513869122      1.83866486594210      2.13463384862190
  O          -1.50046555637797     -1.23870902064039      3.42358228111367
  O           1.50089201864852      1.24098987036731      3.42340156018201
  C          -0.73625373632920     -0.06114815373238      0.09722960794399
  C           0.73601636418316      0.06301479195498      0.09721918442316
  C          -1.45657594519980      0.46565698557196     -0.95241422620880
  C           1.45627097636623     -0.46394761990656     -0.95236957092903
  C          -1.52765640997235     -0.64636724444884      1.11432866455087
  C           1.52754246266524      0.64817515780237      1.11425096555583
  C          -2.84125806622240      0.44846037283766     -1.04369262799634
  C           2.84097707346393     -0.44692805984600     -1.04384567789645
  C          -3.61533097400309     -0.11465015724316     -0.04395235143990
  C           3.61517354499191      0.11606505022014     -0.04410071165927
  C          -2.91319946873339     -0.65366866797148      1.03866382066272
  C           2.91304861705581      0.65526031674493      1.03848052908864
  C          -2.03381946009161      1.31779691375436     -2.92079910733030
  C           2.03302499625174     -1.31573420677114     -2.92098638645389
  C          -0.95284263171210     -1.25635424210261      2.34550703357957
  C           0.95293984788915      1.25825241108345      2.34548900374652
  C          -5.69969983756520     -0.09435416779787     -1.21989002274681
  C           5.70074746683263      0.08727421902666     -1.21828464828818
  C           0.92260484958985     -2.31427547098981      3.30438155289034
  C          -0.92262576730285      2.31566244817578      3.30470177301136
  H          -3.48050789564418     -1.09865535476251      1.84337134708601
  H           3.48040968179544      1.10021662834094      1.84316600504920
  H          -2.02414222797525      2.31627164036671     -3.35317736874974
  H          -1.97146291208376      0.53961283840758     -3.69257487517593
  H           2.02308276221211     -2.31398412185897     -3.35387266979604
  H           1.97063143152964     -0.53713410733489     -3.69234816947865
  H          -5.64318912793188      0.89723598545929     -1.66867356622442
  H          -5.32765409761670     -0.83534057062281     -1.93188191308572
  H          -6.73024485254815     -0.32424429707877     -0.95941931714680
  H           5.64272941422702     -0.90698164212949     -1.66094999598268
  H           5.33121541306996      0.82453997552402     -1.93538896493712
  H           6.73143137888951      0.31658634826310     -0.95787901144299
  H           0.31951527229534     -3.05850928789123      3.82235335205378
  H           1.84694498303353     -2.75144423691667      2.93776133995482
  H           1.13460423489385     -1.48164076307945      3.97397559902964
  H          -0.32000291089820      3.06078164110177      3.82195129999758
  H          -1.84758555074804      2.75173176201861      2.93833323071949
  H          -1.13346676906977      1.48319621734389      3.97486775565789
