56
Coordinates from ORCA-job 10848577 E -708.662272014192
  C          -2.28426447823323      2.36086958467989     -0.70783135808594
  C          -1.77406095110684      2.49446926204704      0.73554048729468
  C          -2.77488398258482      0.94507156076075     -1.05509857890787
  C          -0.69431227323257      1.49601979476568      1.15896847706610
  C           0.58905011779715      1.56227674044690      0.33324203958458
  C          -3.91273305346526      0.40096355019468     -0.19220776249096
  C           1.67470197345419      0.61286434224081      0.83376284558989
  C          -3.35062734087621      3.42193014083491     -0.99046664998346
  C           2.95779587413176      0.66519331676133      0.00838400578667
  C          -4.34696649455995     -1.00319088387143     -0.60693065316186
  C           4.04339206700811     -0.28494164367515      0.50771349807581
  C          -5.47808553339586     -1.56840977912695      0.24804035081232
  C           5.32615891663076     -0.23272831668154     -0.31843920918751
  C           6.41191570026136     -1.18284946826762      0.18031812584497
  C          -5.91208200489549     -2.97337072147691     -0.16423004621976
  C           7.69518529193437     -1.13170684079661     -0.64602854698401
  C          -7.04309451952928     -3.52885715193299      0.69738193893970
  C           8.77397063075111     -2.08483401228094     -0.13823613214302
  H          -1.44254483305532      2.56808082404635     -1.37743293004599
  H          -1.38508182077595      3.51049745397277      0.86540336667393
  H          -2.62289962929409      2.41138669536174      1.42152152523292
  H          -3.09391661744487      0.94136795992072     -2.10316086147559
  H          -1.93180417348991      0.24936593626946     -1.00016063910764
  H          -0.44653236388137      1.67956208632215      2.20974979919901
  H          -1.09264438059258      0.47704687606334      1.12162635896935
  H           0.37136559846048      1.33089808267138     -0.71406338153074
  H           0.97200495435072      2.58958222707919      0.34306347032569
  H          -3.60731711118633      0.38093929018341      0.85845546314067
  H          -4.77643688305932      1.07079917078838     -0.24512669555948
  H           1.90663652122651      0.84657686801552      1.87919673019512
  H           1.28570656788590     -0.41201390430279      0.83239203045107
  H          -4.21133158242170      3.31167579365946     -0.32695488189657
  H          -2.94896414064888      4.42647615320323     -0.83970838833074
  H          -3.71151448572493      3.35629907174259     -2.01963486773112
  H           2.72490590124168      0.43057031926702     -1.03669356583933
  H           3.34617858654445      1.69018013263553      0.00866050121285
  H          -4.65900324091406     -0.99010741053876     -1.65757200371263
  H          -3.48405425635972     -1.67737167186547     -0.55641594596916
  H           4.27655009348827     -0.05026536673835      1.55268361527283
  H           3.65463035092196     -1.30977678364334      0.50760200214629
  H          -5.16594508113268     -1.58123464889230      1.29888413225606
  H          -6.34153854733774     -0.89482402935184      0.19765207327433
  H           5.09273294997845     -0.46725316647889     -1.36342656457407
  H           5.71464122846647      0.79223002627937     -0.31820125069750
  H           6.64631225004968     -0.94839547377452      1.22526677337780
  H           6.02372745326544     -2.20809327710247      0.18063191912214
  H          -6.22401287311972     -2.95944661086848     -1.21402291510111
  H          -5.04870406044845     -3.64536956763317     -0.11343327642833
  H           7.46007273957135     -1.36692915876206     -1.68956293674107
  H           8.08195933481862     -0.10702471399894     -0.64598618179005
  H          -6.74587867187709     -3.58371977706549      1.74781449580040
  H          -7.92990534439458     -2.89252462918879      0.63916334430216
  H          -7.33268396814022     -4.53289062647806      0.38072927245930
  H           9.05028698584145     -1.85146404307020      0.89323771341782
  H           8.42455348296098     -3.12031832968431     -0.15899848347852
  H           9.67898312613782     -2.02693725266521     -0.74636164865039
