43
Coordinates from ORCA-job 10857540 E -737.570564472942
  O          -0.71677113729362     -1.09439426444986     -1.60636547387489
  O          -2.46934820928089     -1.50471585946188      1.54010518781887
  C          -0.48615475930836      0.56814542248555      0.18991238702269
  C          -0.77680714454451     -0.93222987401572     -0.17277351938513
  C          -1.51087471327787      1.45729236156135     -0.57523904941522
  C           0.95274988461673      0.87685001182127     -0.27607734870653
  C          -2.22309825315584     -1.36748135160494      0.14125354735727
  C           0.24348489333132     -1.86883290063951      0.47337964846263
  C           2.01014755832766     -0.02615244057775      0.36765791815288
  C          -2.95683106689428      1.03392411162187     -0.27506466708948
  C           1.68298270608485     -1.50847744669887      0.10007427468142
  C          -3.22256780359492     -0.44593769225898     -0.55268464603751
  C          -0.56867194301672      0.85632504961461      1.70522228143610
  C          -1.34506691177092      2.95776229225384     -0.32802214210539
  C           3.43569187339821      0.29813323804935     -0.03037353229505
  C           4.50391226507012     -0.32091978786737      0.83060260177196
  C           3.75505625674747      1.07488074423384     -1.06323214346998
  H           0.20335378876665     -1.17300124273879     -1.87393166016661
  H          -2.62818371745480     -0.63550309789054      1.91956402738516
  H          -1.33612584650909      1.27155673051617     -1.63785908013470
  H           0.99912531852098      0.78661455604661     -1.36457442595751
  H           1.19365103818389      1.91547979754841     -0.04782052647925
  H          -2.33272855750983     -2.37774832213054     -0.25697806281278
  H           0.11859896630447     -1.85275766882179      1.55519806601593
  H           0.01937124472165     -2.88926407968000      0.15232893012290
  H           1.95726627373827      0.11922800478573      1.45316380738297
  H          -3.20608255225245      1.28129995219361      0.76330067362266
  H          -3.63490121462442      1.64081913282843     -0.88061654298967
  H           2.36797161246851     -2.15679750795308      0.64815439093797
  H           1.87338761025062     -1.71766715225924     -0.96024786128189
  H          -3.15257034545263     -0.62568497233314     -1.62627347332260
  H          -4.23148514496543     -0.72554202103295     -0.23982129579500
  H          -0.15607537640641      0.05715791568638      2.31439593511437
  H          -0.01191486080281      1.76560414155545      1.93746941125280
  H          -1.58906890775277      1.03047899030833      2.04572321950836
  H          -1.53893888699511      3.22152435213301      0.71400525438533
  H          -0.34709649173343      3.31395873214098     -0.58421398121968
  H          -2.05651938192870      3.51511031587753     -0.94104911786690
  H           4.46900732034765     -1.41276889114703      0.79355174582547
  H           5.49899839896223     -0.00641552384110      0.51722994183709
  H           4.36759536229268     -0.03757069433924      1.87885257276216
  H           4.79065415598973      1.27219269952619     -1.31212817580129
  H           3.01154669840214      1.54270123895378     -1.69329509664992
