44
Coordinates from ORCA-job 10860310 E -1074.880588331991
  O           0.02442656032680     -0.90821147353697      0.87734878412114
  O           2.12994072621774     -3.00813787317189      0.82779163368697
  O          -4.33337367212760     -0.68776480880036     -2.01755595796598
  O          -5.89723407438289      0.37993130006910     -0.69627932962354
  C           0.32522247517717      1.37969071618865      0.21843019390079
  C          -0.56785082011425      0.41215489961545      1.03954400097750
  C           1.60853351244236      0.58897082916560      0.12738535363299
  C           1.32551869846408     -0.72424852115676      0.49257601950752
  C          -2.01243895295788      0.38580282564979      0.64478110824066
  C           0.43193738891145      2.76429486411345      0.84155777408618
  C           2.87657022269420      0.96756676885456     -0.25548889767821
  C           2.30902312622356     -1.70741016535322      0.45474306616366
  C          -2.39293813994055     -0.23362579855426     -0.56019054017231
  C           3.90294356318347      0.00686723959130     -0.28202631535010
  C          -2.96077468136377      1.01811935324443      1.43893798376687
  C           3.58861216707939     -1.31086084449339      0.06425837889415
  C          -3.72076190911420     -0.18243316263629     -0.89883389261385
  C          -4.66306738238253      0.45979772737522     -0.10343503300545
  C          -4.31460434770218      1.07427435540508      1.07358063719139
  C           5.28302753920371      0.31896007904899     -0.66280829071350
  C          -5.73761817397224     -0.51080732443315     -1.80559427739374
  C           0.94130819575414     -3.66277615178121      0.38150259665663
  C           5.78792326149596      1.50811459799338     -0.99726159217611
  C           7.21452008546814      1.74618574617636     -1.37495935974911
  H          -0.10166790864594      1.47872515041890     -0.78623432813462
  H          -0.48070587145532      0.66826060210581      2.10092249837062
  H           0.87258112574844      2.70710716650438      1.83896256185209
  H           1.05787976250705      3.41847937189780      0.23304424775082
  H          -0.55346484975835      3.22800056063345      0.92328604966871
  H           3.07710281325299      1.99429090437661     -0.53071982769029
  H          -1.66923362035156     -0.74101933028173     -1.18215028062664
  H          -2.64960615066836      1.47483666229425      2.36976754543036
  H           4.35811143076584     -2.07261184798227      0.04674602759005
  H          -5.05014217676927      1.56924120509528      1.69180626423781
  H           5.95671674287777     -0.53473876894377     -0.66295428756620
  H          -6.18626739870740     -0.06819355791515     -2.69436962589225
  H          -6.19440913548700     -1.47732741820399     -1.56463508946031
  H           1.06827218151093     -4.71353794794925      0.63421941376292
  H           0.05387627239180     -3.26529907822059      0.87262889889181
  H           0.83206808813039     -3.56048855318656     -0.70239773300779
  H           5.14389777513775      2.38292520484616     -1.00325819057597
  H           7.68763592866352      2.46887108166427     -0.70225884292527
  H           7.79510109800010      0.82282578180824     -1.34335994401766
  H           7.29327752427247      2.16319963246429     -2.38422440204271
