27
Coordinates from ORCA-job 10864 E -428.725271245550
  C          -1.42923604802526     -0.00340578317243      0.12705153508792
  C          -2.86669511901567      0.00953432913781     -0.38421606244468
  C          -0.38805659759116      0.02489503736692     -0.99973909886674
  C          -3.90804262783371     -0.01959577420426      0.73255700637408
  C           1.02534178720773      0.01214997997493     -0.48165460843597
  C          -5.34333328886043     -0.00596212097821      0.21313394448637
  C           1.68992155399095      1.20237886212312     -0.18700869128917
  C           1.68678629426461     -1.19132255622398     -0.23797736659552
  C           2.97650524492437      1.19299831744732      0.33754230425911
  C           2.97331531092874     -1.20768050683717      0.28642456570758
  C           3.62310192236418     -0.01382866157285      0.57717558113709
  H          -1.26385040487538      0.85510244705001      0.78604698175993
  H          -1.26396303871537     -0.89400676205305      0.74201291216110
  H          -3.02432042197753      0.90134956077747     -1.00191901522112
  H          -3.02399231581385     -0.84922388840769     -1.04718472174384
  H          -0.54771266914796     -0.83646182492347     -1.65475126124820
  H          -0.54787257201523      0.91781909378920     -1.61094970452336
  H          -3.74921337959161     -0.91101089247062      1.34845337526049
  H          -3.74919483049902      0.83840868150876      1.39420226423759
  H          -6.06562005145053     -0.02756209759383      1.03155786388385
  H          -5.53817670469101      0.89157091668071     -0.37940849829078
  H          -5.53813608889041     -0.87102832856253     -0.42588760321288
  H           1.19330117843986      2.14763383054479     -0.37448067694808
  H           1.18769047206579     -2.12643390301575     -0.46549546778588
  H           3.47609249846304      2.12866454114849      0.55567878851641
  H           3.47043186306821     -2.15308853435607      0.46451621582496
  H           4.62663403327666     -0.02379596317764      0.98288143790974
