23
Coordinates from ORCA-job 10877278 E -463.433160686296
  O          -1.96979731726662      1.41078155589955      1.60371594368855
  C          -1.23909635197663     -0.96713417748054      0.14255430587398
  C           0.18861118397805     -0.46774718810692      0.02424993173670
  C          -2.23730751789495      0.07188941665456     -0.38047026544395
  C          -1.43797421543325     -2.31444933994048     -0.56123757414697
  C           0.93507309543198     -0.17838272655843      1.16446303411977
  C           0.78668348998092     -0.28194590106930     -1.22350767077373
  C          -2.39527060111992      1.29521804534092      0.48385994422262
  C           2.24467741633034      0.27740140812220      1.06523802974622
  C           2.09414436825106      0.17536541284345     -1.32871665080334
  C           2.82960110317390      0.45570512180437     -0.18233558333480
  H          -1.44595629627292     -1.10440034739777      1.20575594306898
  H          -1.98179584562031      0.40091544641975     -1.39361123091564
  H          -3.24230283388151     -0.36503453322237     -0.46659943451486
  H          -0.72519184720739     -3.05154029374939     -0.18938371114990
  H          -2.44679141945303     -2.69557749885156     -0.38731599046628
  H          -1.29545890188761     -2.22925573358364     -1.64051310135447
  H           0.47645354758197     -0.29516059530613      2.13807880131169
  H           0.23038671612713     -0.49978795655714     -2.12761578302840
  H          -2.97881287002747      2.11890334480954      0.01875560596700
  H           2.80573616374524      0.49849350983026      1.96455242053690
  H           2.53981271451874      0.31116328413620     -2.30628757539220
  H           3.84877721892230      0.81187574596288     -0.26208038894789
