42
Coordinates from ORCA-job 10878761 E -662.351768323802
  O           2.94015304275311      1.28888200521148      0.88142487450374
  C          -0.87841970256834      0.01350570518854     -0.39898904677217
  C           0.30873676183444     -0.21568615823408      0.59228045471251
  C           1.57971381006096     -0.41616007522093     -0.24953149693869
  C          -0.17973179682004      0.20101135442055     -1.78386421825979
  C          -1.84336058195219     -1.20316100163559     -0.45883292472498
  C           1.30706820845735      0.42391649872294     -1.50421208154151
  C          -1.63811040038257      1.27473346138713      0.00724217310148
  C           2.90099948555685     -0.09353016540214      0.48151881704356
  C          -2.76427944641599     -1.24215433745977      0.76045112567720
  C          -3.64673519373613     -0.00278408198626      0.81916151266897
  C          -1.14654879955908     -2.55338564209406     -0.63763539334446
  C          -2.86139367035051      1.24144098629037      0.53847926100562
  C          -0.94274087929465      2.59807806859311     -0.18465581157208
  C           4.09319190936901     -0.26294837985643     -0.45410974679605
  C           3.06717136613650     -0.98429816677118      1.71407561481019
  H           2.31972002359592      1.41563134603265      1.60722159973959
  H           0.41698537146435      0.66501963474121      1.22793798515688
  H           0.11199606950231     -1.04984659714404      1.26349626667972
  H           1.63322228800582     -1.46945081080401     -0.54531511908560
  H          -0.30542938537562     -0.70646212020095     -2.37518197477516
  H          -0.63031649366678      1.00614703236948     -2.36303811545234
  H          -2.47681532158659     -1.03857689942638     -1.33986537227940
  H           1.51519558734716      1.47204163024828     -1.28217715915205
  H           1.93195454076238      0.13724901693807     -2.35072653518924
  H          -3.37797641396634     -2.14641973378235      0.73507063584745
  H          -2.15526357917625     -1.30369872917710      1.66869493918018
  H          -4.46571444996149     -0.09272498137734      0.09339423371479
  H          -4.12999477311259      0.07902308468833      1.79785820700812
  H          -0.56982544814702     -2.82849530020920      0.24789984170781
  H          -1.89175468569900     -3.33605601510620     -0.79313774694920
  H          -0.47130463948899     -2.57130806432080     -1.49325038957719
  H          -3.33709922091067      2.18308989110102      0.79779060625413
  H           0.03710644657275      2.61882826106781      0.29868050603724
  H          -0.76902370277517      2.81993175921996     -1.24014518706134
  H          -1.53926888695994      3.40920543357664      0.23227658799871
  H           5.02244345992597     -0.08802302582913      0.08934304942442
  H           4.11573024634522     -1.27175302614400     -0.86996538591005
  H           4.04103900926587      0.45131745236673     -1.27477869114340
  H           2.25811902387732     -0.82312586293786      2.42999531842590
  H           3.05993937511515     -2.04044082787086      1.43667477319301
  H           4.01255144595751     -0.76253161917363      2.21101901263348
