33
Coordinates from ORCA-job 10879760 E -880.802074850399
  O          -4.05249834852665     -1.61018526777347      0.09895992589528
  O          -1.85328076559923     -1.81337081866261      1.56498763744102
  O           2.32165561087590     -2.47592017785535     -1.36366358368863
  O           5.10790503754526     -0.08498543015683      1.76164773281225
  C          -1.04745367229265      1.25329328620126     -0.26182758534341
  C           2.14227783657251      0.92552842889447     -0.09145484478303
  C           0.00541694291854      2.27016577343143     -0.37372778727134
  C          -0.94871726010877      0.16258158344483      0.61388879199268
  C           1.33448340441114      2.14538236995541     -0.24989876688354
  C          -2.21338626857621      1.39692612770607     -1.01400669059503
  C          -1.96665178023886     -0.76390891969423      0.70519042902466
  C          -3.12178344679166     -0.62267349207543     -0.08301642533585
  C          -3.24261780333367      0.46149848594912     -0.93736416870523
  C           3.25475858412591      0.96114626136465      0.75301491692591
  C           1.85093246996184     -0.24060074050713     -0.80293443161391
  C           2.65050007390699     -1.36221536504838     -0.64367981839304
  C           4.04256524687319     -0.17164933283291      0.91012704865471
  C           3.74695187470188     -1.34224297689307      0.21728887133572
  C          -5.25545171700645     -1.54168887660142     -0.64859690890331
  H          -2.65791059008823     -2.34430771087142      1.48910946258407
  H           2.94005242999648     -3.18693731217683     -1.16319228336339
  H           5.57202149511751     -0.92890801607157      1.78803922889535
  H          -0.36502850575482      3.27182972318585     -0.57180532115755
  H          -0.07711280295763      0.02955310333611      1.23765415296568
  H           1.91284715213100      3.06385196283514     -0.27890631834877
  H          -2.31777423564207      2.24379977380477     -1.68036430912814
  H          -4.12940361066766      0.59129292123478     -1.54064531430807
  H           3.50728651095767      1.85798307605794      1.30233419092915
  H           1.01033304766834     -0.28534488331824     -1.47872248292911
  H           4.36841105186630     -2.22450653989179      0.33715962911195
  H          -5.05323248189726     -1.57925920168360     -1.72266731462340
  H          -5.84304931411456     -2.40952503116999     -0.35892102342477
  H          -5.81176616603408     -0.62938478411757     -0.41565063976892
