28
Coordinates from ORCA-job 10889963 E -803.230285031391
  O          -0.54453754188171     -2.68680399842236     -0.05122056627458
  O          -0.56007181053545      2.69676722024364      0.04978743650134
  O           4.31677105688252      1.34804055147428      0.04225996126997
  C           0.71559043889657     -0.69176148193340     -0.00920562713789
  C           0.70948758054431      0.70699458583120      0.01708008684014
  C          -1.81966868213791     -0.69884192211913     -0.01846785332704
  C          -1.82738310703278      0.70227138417595      0.00784398445175
  C          -0.54299703762983     -1.46724822941741     -0.02835300225620
  C          -0.55983773257117      1.47789442746560      0.02694419453559
  C           1.93731792760750     -1.36686259187992     -0.01747281334534
  C           3.14783876130899     -0.69620615147432     -0.00048512754689
  C           1.91407322255687      1.40039906968556      0.03450871597319
  C           3.11563996509873      0.70998190018777      0.02587718779289
  C          -3.02648999695546     -1.39452675134850     -0.03583045141134
  C          -3.04073251271595      1.38804848886515      0.01644715324957
  C           4.46242682183471     -1.41627107969362     -0.00937197962155
  C          -4.22892553934387     -0.70534418756617     -0.02713136604739
  C          -4.23631894861244      0.68799123690156     -0.00095636960290
  H           4.17864018454485      2.30245250287663      0.05945908991344
  H           1.91877290515710     -2.44859086859970     -0.03790451221220
  H           1.88826728587316      2.48354678462619      0.05479252330893
  H          -2.99613397250517     -2.47510879752749     -0.05604510671209
  H          -3.02107670339535      2.46889968380170      0.03685151160702
  H           5.05359722217649     -1.16196844030496      0.87321455602295
  H           4.31149588118054     -2.49436528404223     -0.03037111830250
  H           5.05980317242809     -1.12883150378497     -0.87749860961124
  H          -5.16371823273844     -1.25098304661633     -0.04070291449044
  H          -5.17647960803490      1.22434949859528      0.00580301643283
