28
Coordinates from ORCA-job 10887985 E -391.785595183695
  C           1.71681725694316     -0.16175568132856     -0.33517214058503
  C           1.20342526952089     -1.32065434758590      0.53524706903338
  C          -0.20542374805969     -1.10376650392626      1.10590270588374
  C           3.04666011107819     -0.53729113013846     -1.00091298622844
  C          -1.25642631133158     -1.04720599466604      0.03843152059580
  C           1.87224735814627      1.09417896710609      0.47190931610485
  C          -2.14662889281607     -0.08342605555724     -0.20609223329359
  C          -3.13125625336745     -0.21087401628325     -1.33644869923299
  C          -2.27676649577363      1.18484344315534      0.58915577645967
  C           1.23355308082192      2.23598853100755      0.25289495084506
  H           0.97636559388933      0.02772523031570     -1.11844400609705
  H           1.21098873246232     -2.23648061263776     -0.06503150728774
  H           1.90623208092552     -1.48583299657833      1.35900091060733
  H          -0.42977040383087     -1.93821775778596      1.78053755058007
  H          -0.21420258265053     -0.20134599943023      1.71729680272895
  H           3.81793888453222     -0.73004403274459     -0.25005767559668
  H           2.93539478237525     -1.44075527951872     -1.60470671088876
  H           3.40263822418812      0.26608935665635     -1.64770791164527
  H          -1.27578041269848     -1.91641348903204     -0.61735914572715
  H           2.58020927443675      1.03333885462500      1.29759078554420
  H          -4.16070484377917     -0.16295742367038     -0.96629617084642
  H          -3.01830329501491      0.61425627807450     -2.04751253939057
  H          -3.00672728386769     -1.14869185099216     -1.87826475620161
  H          -1.51202108366013      1.29170317231602      1.35403850883420
  H          -2.21624058229050      2.05632094665078     -0.07032359020322
  H          -3.25723958027227      1.23109467498955      1.07457284582090
  H           1.39914961596221      3.11035930505076      0.86992345964287
  H           0.51794950413085      2.33500241192823     -0.55553512945650
