24
Coordinates from ORCA-job 10909635 E -426.532522385174
  O          -1.63683313465057     -1.32081129451225     -1.02287996196993
  C          -0.94257741265411     -0.20479008658367      0.99032024685632
  C          -0.23995915017770      1.16342489865412      1.03804698062072
  C           0.08029476876669     -1.32561354141193      1.17316723976100
  C           0.80789682180325      1.28220020646915     -0.06708574633397
  C           1.68884926620416      0.06275988604541     -0.17068753203624
  C           1.34902263139592     -1.08940338484448      0.40389958997824
  C          -1.76745330258199     -0.37183773108547     -0.28541411835752
  C           2.94409028714719      0.22506543340330     -0.97544870053669
  C          -2.78712581524628      0.70924764464918     -0.58617029233983
  H          -1.67326646930630     -0.23913122117694      1.80796244745224
  H          -0.96076772502433      1.98014622914226      0.97397789687767
  H           0.25118655086862      1.25389642985076      2.01027945978796
  H           0.31000290627521     -1.43306318758237      2.23988389742406
  H          -0.35919998830885     -2.27306008760602      0.85520355109703
  H           0.32477387818729      1.45509966259980     -1.03815490945729
  H           1.42917859187260      2.16647420027823      0.10810861316851
  H           2.01638838704832     -1.94045546479417      0.30717584079718
  H           3.58959049637583      0.99962966027788     -0.54851491867627
  H           3.51147410725655     -0.70445099705931     -1.02729573156333
  H           2.71233653513150      0.53936672063737     -1.99866691562576
  H          -3.28339815541230      1.06299386655580      0.31919709666242
  H          -2.28424806045873      1.56848594131987     -1.03755869312130
  H          -3.51913101451195      0.32725521677346     -1.29451934046520
