45
Coordinates from ORCA-job 10903924 E -1150.073269751580
  O          -0.01608024901323      0.29046531685168     -1.38601496704093
  O          -4.14782779532425     -1.48720232811196      1.71119554347574
  O          -3.70558214394066     -2.59475521325160     -0.81222318130596
  O           4.33172296007106     -2.05217384501033      0.37181913903988
  O           5.96513909044256     -0.42028803842019      0.32122020828331
  C          -1.59134092779703      0.79422380110859      0.27068649706464
  C          -0.18271608970321      1.11100568526890      0.83702872650686
  C           0.65721495822977      1.19504754527799     -0.45414269815231
  C          -1.19793129326970     -0.09648461029378     -0.86499166589515
  C          -2.27052277264918      2.10036073623304     -0.29478773843161
  C          -2.55549742153435      0.13909512480494      1.19632523057174
  C          -0.03763009172101      2.31905058385637      1.74545271899864
  C           2.09505792214072      0.80295334712669     -0.30188118302223
  C          -1.89894047824741     -1.16240570160966     -1.27353075304106
  C          -3.26271631311735     -0.93612016365004      0.83604953770970
  C          -3.03154450367927     -1.63026613609782     -0.48092356401009
  C          -3.44255620026143      1.84655598489734     -1.18784192583306
  C           2.42973746711377     -0.54407454014696     -0.06772172794311
  C           3.08409416877650      1.77760292012645     -0.34080531550381
  C           3.75705125324630     -0.83532569268116      0.11453916670145
  C           4.43737688213839      1.46706493221778     -0.13881654074219
  C           4.74146858752038      0.14696556760005      0.08402044201841
  C          -4.70436869359583      2.07937967934857     -0.85300300337708
  C           5.74589303948085     -1.83622356164751      0.32475343258849
  C          -5.51746044247360     -1.54093108846521      1.29043160183664
  H           0.14324465347283      0.22080736481464      1.38220600380217
  H           0.60283873620450      2.20015358291735     -0.87818271845182
  H          -2.57813821037883      2.70357990033208      0.56061351842357
  H          -1.51983397455606      2.67428203622749     -0.84320248401700
  H          -2.76298861656805      0.61591149848865      2.14747417305003
  H          -0.67210041200488      2.22187109345932      2.62785283787830
  H           0.99451360011095      2.40804850616892      2.08822672689899
  H          -0.30117771763340      3.24747020908006      1.23729083119639
  H          -1.59342606468493     -1.76714438431759     -2.11654493122023
  H          -3.22091805095577      1.42897834276401     -2.16427827976396
  H           1.67572049317520     -1.31845894852838     -0.05047429770412
  H           2.80599778998651      2.80529569466915     -0.53727445980952
  H           5.20543297880725      2.22691643931703     -0.16631786931477
  H          -5.51937367144532      1.87440798563971     -1.53521221308446
  H          -4.96800204900472      2.48156824108340      0.11911630008116
  H           6.20982046078960     -2.27310262743108      1.20854317249374
  H           6.15047177583998     -2.26874919032807     -0.59660514347839
  H          -6.06822269970361     -1.95879188515848      2.13061256287994
  H          -5.88409153070270     -0.53120610385251      1.08045652689627
  H          -5.63318640358131     -2.17215006067790      0.41227276274680
