25
Coordinates from ORCA-job 10910685 E -726.026885586242
  O          -2.30237005468465      0.94191865170763     -0.33322297239837
  O           2.25911965535852      2.22547032876607     -0.06257071411630
  O           3.45002027862970     -1.71126294622825     -1.21639101486637
  O          -4.45958709837223      0.42807648434325     -0.49219103894662
  C           1.66636340536639      0.01348815254428      0.50909360517327
  C           3.11551522896931     -0.28881015468954      0.76859323023403
  C          -0.66900588910437     -0.67847683334061      0.37213710914017
  C           0.68057919292130     -0.94333285426039      0.64474442642296
  C           1.27344382947096      1.29450454228510      0.07395094140456
  C          -1.01575793482548      0.61011375502828     -0.05323574355596
  C          -0.05228235239571      1.59684964290743     -0.20255021062676
  C           3.91308940339111     -0.56686603791202     -0.51012133318054
  C          -1.72430611088386     -1.63692231957451      0.49746372442719
  C          -3.00003218294406     -1.30364999703455      0.21647434361264
  C          -3.35785198644923      0.03355424268509     -0.22132385843875
  H           1.88149546269282      3.06197533353520     -0.35779755991631
  H           3.64041269140105     -2.49646281973958     -0.69172243809409
  H           3.58806407649399      0.54997517509139      1.28553185051049
  H           3.19133094357088     -1.15654070685566      1.43066901992933
  H           0.95500543551887     -1.93876841931225      0.97324731472751
  H          -0.35095804741678      2.58397001059622     -0.53344411731676
  H           4.97606316297309     -0.66620125780599     -0.25958351730050
  H           3.81067408949210      0.26934910013522     -1.20105041206197
  H          -1.47866252179856     -2.64155183617974      0.82268638166869
  H          -3.81819767737518     -2.00351623669207      0.30003498356846
