32
Coordinates from ORCA-job 10920919 E -506.294950947302
  O          -4.69368902565732      1.18505319753885      0.58302249935758
  C          -1.35024209028100     -0.52227340861639     -0.09989037449331
  C          -2.38050029239853      0.40039192045923      0.51639710203952
  C          -1.79996189379816      0.71010946075728     -0.83990950677011
  C           0.03464710776282     -0.48198905405942      0.52285519718300
  C          -1.76668548224713     -1.88053663426918     -0.62386787127104
  C          -3.83426678372438      0.04730224106497      0.67244482327484
  C           1.17990483992499     -0.75201442466978     -0.46677367092232
  C           2.52474213323386     -0.66052472127701      0.18875254169655
  C           3.43407440968686      0.30905276299265      0.06751318244108
  C           4.73370223771459      0.25170372112999      0.82244016830083
  C           3.27334351098724      1.52539231690350     -0.80078120997205
  H          -4.39815069542209      1.83985122450512      1.22499435487688
  H          -2.00088173429361      1.00386443066057      1.33741480226744
  H          -1.11091904742297      1.54055316728155     -0.92856701347112
  H          -2.45457080012383      0.58248962507823     -1.69314554872067
  H           0.19770128696342      0.50128637076089      0.97261054720397
  H           0.08512545445585     -1.20665384607100      1.34365137842778
  H          -1.78206769674010     -2.62229573953123      0.17974196151625
  H          -2.75435731324994     -1.86079667900670     -1.08204863102578
  H          -1.06811433016875     -2.23131792268939     -1.38592243785540
  H          -3.99302563639010     -0.47335064312126      1.62604172403980
  H          -4.16634137887462     -0.61870457282169     -0.12226844115096
  H           1.06337807506662     -1.75412923348918     -0.88991149581013
  H           1.09525475096762     -0.05505458272286     -1.30194283286954
  H           2.75956569864385     -1.48024872566592      0.86456093353782
  H           4.84696196111350      1.12444227480219      1.47401829656247
  H           4.80453686872522     -0.64559903063586      1.43748385300174
  H           5.58600620338425      0.26415161384427      0.13501254768030
  H           3.35417184226236      2.43584889619491     -0.19829163008829
  H           4.07419546137329      1.57507478873372     -1.54556722748202
  H           2.32155735852619      1.55492620593895     -1.32671502150509
