44
CID 10937119; DFT optimized geometry from ORCA OUT; energy -1224.166651577212 Eh
O         -0.414233        -0.210462        -0.098682
O          4.112176        -0.440555        -0.898310
O         -2.744083         2.465482         0.753544
O          2.215717         3.793526         0.278160
O         -0.460349         3.740339         0.816820
O         -6.230781        -2.633507        -0.211894
C          1.870838        -0.255328        -0.506127
C          2.053308        -1.707980        -0.828561
C          3.597421        -1.817945        -0.979538
C          0.751383         0.472807        -0.161505
C         -1.520564         0.393709         0.603015
C          3.099013         0.386487        -0.575254
C         -1.671262         1.834971         0.116727
C          0.849061         1.864852         0.103679
C         -0.373328         2.601877         0.388868
C          2.129680         2.469398         0.028027
C          3.263471         1.738219        -0.313691
C         -2.740045        -0.448462         0.373308
C          4.260524        -2.652234         0.081000
C          4.154181        -2.157248         1.493852
C         -3.680369        -0.607109         1.388712
C         -2.987030        -1.037498        -0.863308
C          4.882031        -3.778810        -0.253751
C         -4.842442        -1.333132         1.182742
C         -4.143218        -1.774035        -1.080423
C         -5.076032        -1.921267        -0.056850
H         -2.397221         3.335577         1.022770
H          3.126429         4.082730         0.145076
H         -6.278974        -2.979449        -1.110187
H          1.677826        -2.366642        -0.044203
H          1.548469        -1.992825        -1.753624
H          3.878171        -2.181766        -1.966141
H         -1.279956         0.413995         1.672080
H         -1.819713         1.806267        -0.974689
H          4.239387         2.202838        -0.367914
H          3.111558        -2.023194         1.794318
H          4.623808        -2.852106         2.188641
H          4.639694        -1.184155         1.594758
H         -3.507452        -0.143807         2.351702
H         -2.264347        -0.931867        -1.661235
H          5.330824        -4.422646         0.492427
H          4.959213        -4.097507        -1.286312
H         -5.574605        -1.454427         1.969572
H         -4.320722        -2.235104        -2.046099
