27
Coordinates from ORCA-job 10931630 E -465.787002992883
  O          -2.64878051724355      0.64999043328250     -0.64729937864540
  C           1.32527811280273     -0.08560927741375     -0.39205166758362
  C           0.88220771889859      1.24522207829188      0.29985261746414
  C           0.51464343670633     -0.79599214710282      0.76113687686145
  C           0.80988157804860      0.45641839337570      1.63342567976541
  C          -0.53209817401523      1.64016793090478     -0.12680200682462
  C          -0.93250896936353     -0.82712890778345      0.36897824665534
  C          -1.55996868458347      0.55921773977781      0.26335743169170
  C           2.82808677437091     -0.33045532804917     -0.26283145841067
  C           0.90791669199584     -0.34606126838140     -1.83198627843184
  C          -1.59470710310571     -1.94965767831086      0.11491379854055
  H          -3.37079316482673      0.10011019411193     -0.32562477443987
  H           1.57197314007231      2.08872363619320      0.23309958275995
  H           0.87234332134675     -1.77016011145760      1.09702874349876
  H           1.77009715682275      0.38655173992828      2.13655637709841
  H           0.05835270674276      0.75643056456769      2.36337361341297
  H          -0.82065677541361      2.58419836901834      0.33975811786878
  H          -0.58358585201594      1.79314928239970     -1.20559622984712
  H          -1.92363547372173      0.80047320373288      1.27068871095299
  H           3.20544015039271     -0.16123695063749      0.74505764149213
  H           3.07067173766799     -1.35905019546003     -0.54108545346861
  H           3.37586828731177      0.33279781883020     -0.93735093520478
  H          -0.16074846921398     -0.23396926040557     -1.99970506719604
  H           1.43231276233056      0.33672509018110     -2.50627965234415
  H           1.17492328447722     -1.36591162711207     -2.12101909943441
  H          -2.61766512468216     -1.95350723395356     -0.24075983030487
  H          -1.12232755180220     -2.91717748852820      0.23183139407342
