14
Coordinates from ORCA-job 10959 E -767.239032445013
  Cl         -2.71836239634618     -0.72783853873281      0.90049488037809
  O           0.13125068412932     -0.21687230620245     -0.32535483380785
  O           1.84809553569420      1.07854668659176      0.33260466522473
  C          -0.75838899854062      0.89220716660794     -0.14228902286418
  C          -2.16464811450761      0.41204580712326     -0.38100047098753
  C           1.43149661893449      0.01023141344473     -0.03307928368263
  C           2.24932659421868     -1.23579590195002     -0.22583813842809
  H          -0.63693674793607      1.30241555195132      0.85989309891821
  H          -0.51243918424084      1.67623473593110     -0.86427560827651
  H          -2.24746676222696     -0.11507380529506     -1.32861128819741
  H          -2.85156400827014      1.25544283506330     -0.37079149331028
  H           1.88359083030007     -2.02132318390976      0.43717382865574
  H           2.14358920644912     -1.59748603921493     -1.24950504511038
  H           3.29235274234253     -1.02200142140836     -0.01046428851191
