23
CID 10965145; DFT optimized geometry from ORCA OUT; energy -649.802043619957 Eh
O          0.420846        -2.151175        -0.315173
O          0.736821         2.504554         0.114078
O         -3.572711         0.377483         0.262751
O          2.602920         0.575813        -1.243299
C          0.564252         0.168987        -0.108449
C         -0.242141        -0.978331        -0.135797
C         -0.060356         1.403232         0.053088
C         -1.625603        -0.900351        -0.015406
C         -1.445332         1.504661         0.187736
C         -2.214438         0.349839         0.146042
C          2.059721         0.084621        -0.282573
C          2.833829        -0.587349         0.824476
C         -0.326253        -3.355244        -0.392990
H          0.194191         3.294336         0.211561
H         -3.873448         1.288864         0.350509
H         -2.260583        -1.770734        -0.052933
H         -1.910889         2.474671         0.327618
H          2.776932         0.043891         1.716587
H          2.389475        -1.550016         1.076069
H          3.875068        -0.709054         0.531667
H         -0.882814        -3.538112         0.530251
H         -1.019071        -3.335290        -1.238229
H          0.403072        -4.147876        -0.540548
