28
CID 10969850; DFT optimized geometry from ORCA OUT; energy -391.786563324674 Eh
C          0.974162         0.428419         0.293499
C          0.009302         0.451933        -0.943735
C          0.919298        -1.124609         0.135783
C          0.627375        -0.904757        -1.367006
C         -1.465819         0.200843        -0.608251
C         -0.328913        -1.718828         0.787786
C         -1.618910        -0.907583         0.475187
C          2.349932         0.989142        -0.078300
C          0.571374         1.046794         1.628105
C         -2.231820         1.470792        -0.238056
H          0.113068         1.298934        -1.626869
H          1.816003        -1.684217         0.412625
H         -0.047427        -1.617839        -1.844611
H          1.523186        -0.808359        -1.975221
H         -1.911556        -0.174947        -1.535929
H         -0.436897        -2.747746         0.434442
H         -0.191334        -1.780551         1.870166
H         -1.969835        -0.438871         1.395275
H         -2.417912        -1.588849         0.178696
H          3.080977         0.748771         0.698284
H          2.728973         0.599359        -1.022036
H          2.304073         2.078082        -0.164316
H          1.330450         0.820166         2.382358
H          0.512506         2.135088         1.545856
H         -0.382107         0.691394         2.007552
H         -1.835280         1.934303         0.666032
H         -2.176536         2.206851        -1.043758
H         -3.287351         1.248909        -0.061793
