35
CID 10977290; DFT optimized geometry from ORCA OUT; energy -732.763602695171 Eh
O          0.482745        -0.214517        -0.745998
O          1.124313        -0.905040         1.307372
C         -1.442657         0.861066         0.208181
C         -0.858285        -0.268730        -0.362801
C         -2.912026        -1.521049        -0.229423
C         -1.564437        -1.435571        -0.579933
C         -2.786774         0.764366         0.562806
C         -3.508994        -0.403888         0.348667
C         -0.671487         2.115062         0.418760
C         -3.682170        -2.791533        -0.466693
C         -0.270419         2.870171        -0.819264
C          2.798087        -0.332417        -0.328547
C          1.420431        -0.526008         0.206201
C         -0.390901         2.541657         1.647102
C          2.952406         0.168798        -1.735810
C          3.796675        -0.621621         0.514150
C          5.262816        -0.520573         0.269685
H         -1.048963        -2.284666        -1.011500
H         -3.268338         1.625154         1.008870
H         -4.552933        -0.445042         0.634974
H         -3.211791        -3.637241         0.040411
H         -4.705400        -2.706377        -0.101027
H         -3.724452        -3.034733        -1.531359
H          0.321130         3.751676        -0.570951
H          0.308587         2.234471        -1.491600
H         -1.157574         3.190143        -1.373544
H          0.151611         3.465102         1.811376
H         -0.679187         1.971784         2.520639
H          2.505993         1.158847        -1.848467
H          3.998835         0.235085        -2.024902
H          2.442117        -0.486728        -2.443342
H          3.502434        -0.970334         1.498862
H          5.717982         0.162349         0.993688
H          5.738817        -1.493441         0.425975
H          5.515697        -0.173722        -0.730166
