36
CID 10976879; DFT optimized geometry from ORCA OUT; energy -658.723518388975 Eh
O         -3.805115         1.453152         0.146501
C         -0.689858        -1.288254        -0.080460
C          0.339875        -1.644243         1.030212
C          1.868717         0.250005         0.322075
C         -0.518467         0.173437        -0.434771
C          1.771420        -1.240706         0.687853
C          0.882267         0.562186        -0.817229
C         -0.453104        -2.175200        -1.329654
C         -2.054581        -1.616684         0.430114
C         -1.518132         1.074715        -0.363823
C          3.296879         0.666153         0.044284
C         -3.048024        -0.734814         0.504362
C         -2.870007         0.664780         0.093132
C         -1.356583         2.532139        -0.712119
C          4.192786         0.734203         1.251318
C          3.755312         0.958283        -1.170452
H          0.033361        -1.135098         1.948255
H          0.286324        -2.718121         1.228569
H          1.534387         0.818742         1.200351
H          2.412730        -1.464930         1.541931
H          2.151950        -1.832662        -0.148889
H          0.938391         1.617692        -1.069337
H          1.186113         0.008161        -1.710279
H         -0.593201        -3.226393        -1.070908
H         -1.163466        -1.917111        -2.115425
H          0.553823        -2.059632        -1.726027
H         -2.210517        -2.648001         0.733948
H         -4.033384        -1.000721         0.866387
H         -0.665978         3.034563        -0.030638
H         -0.974088         2.665497        -1.725614
H         -2.322265         3.026769        -0.639861
H          4.274702        -0.236582         1.747075
H          5.197065         1.060551         0.983006
H          3.790307         1.432527         1.991432
H          4.789500         1.241785        -1.322307
H          3.130406         0.931823        -2.052402
