39
Coordinates from ORCA-job 10987383 E -585.924720386407
  C          -0.83096860361124      1.08696097890962     -0.16359834031619
  C           0.00452948211819      2.34304924995247      0.10764787730588
  C          -0.04073312990756     -0.20966598707696     -0.05830123887245
  C           1.35400179860470      2.20985820471637     -0.59070197297743
  C          -2.06184320936651      0.98656334816719      0.74617712243707
  C           1.30452606321942     -0.24445857336320      0.02019406651174
  C           2.12802626679324      1.01602409538354     -0.05446905620639
  C          -2.96878869215645     -0.16466993179839      0.32525645328721
  C           2.09149080244227     -1.53521572853499      0.15696928073634
  C          -0.71025289764987      3.62235640751258     -0.32382311461312
  C          -0.86740583382078     -1.41586157724229     -0.08425415241224
  C          -2.20175617851879     -1.42650957887620      0.04755683729534
  C           2.65305965121432     -1.98288057837254     -1.20100051880222
  C           3.21018494862787     -1.43457686581423      1.20255932475419
  C          -3.00621951255413     -2.68448223084880     -0.07045934201211
  H          -1.19977069163150      1.15659518526829     -1.19843899861432
  H           0.18986139059051      2.39552584548729      1.18880288812778
  H           1.18446362602731      2.08785357926175     -1.66650416726829
  H           1.93918656260780      3.12496195970577     -0.46480944443905
  H          -1.72099030816304      0.82738858879118      1.77430818761734
  H          -2.62444418575580      1.92107618532594      0.73632926634783
  H           3.01166402229241      0.83694977783240     -0.67491678495457
  H           2.51986111338672      1.25472472653559      0.94204924658853
  H          -3.72205775361524     -0.35907221648468      1.09672967083932
  H          -3.53691766165672      0.11339141670755     -0.57288301017644
  H           1.41693706600904     -2.31623102693805      0.50644102594336
  H          -1.66128260919893      3.76206849648913      0.19114257181241
  H          -0.09195258605366      4.49832606829533     -0.11583678384465
  H          -0.91118187881229      3.60563099309379     -1.39892629602827
  H          -0.37635325932771     -2.36380998850558     -0.26352040927905
  H           3.20680589431205     -2.91980156604860     -1.10206074010379
  H           1.84976331983772     -2.13371654824184     -1.92397149749113
  H           3.33706948199133     -1.23669275233167     -1.61195436250571
  H           2.81866673852724     -1.11193281506123      2.16935671597168
  H           3.68393472287625     -2.40901191791796      1.33855951422502
  H           3.98819852466244     -0.73078777263132      0.90142624794262
  H          -3.55583960161377     -2.88818400741140      0.85469524472153
  H          -3.75727902411445     -2.59485168577002     -0.86303881682454
  H          -2.37821085861240     -3.54746775816584     -0.29366949472323
