40
Coordinates from ORCA-job 1103 E -615.590013240906
  N           3.11373823685814      0.25762897142539      0.04238694969388
  N          -3.11441335166386     -0.25840924598744      0.04010870405670
  N           8.02431891090461      0.37459697685889     -0.09706781419042
  N          -8.02497988760409     -0.37384314531685     -0.10091225504320
  C           0.65591878342330      0.38879831009157      0.01089969937793
  C          -0.65656191435811     -0.38944865966561      0.00775480190073
  C           1.88100418311139     -0.51486345495312      0.00496077200323
  C          -1.88161085967091      0.51425305899950      0.00909462420499
  C           4.31929135911947     -0.55642913640871     -0.00447943556902
  C          -4.31989174646798      0.55609864850277     -0.00023030430376
  C           5.57111059767283      0.30894614494134     -0.02661410612185
  C          -5.57177473226428     -0.30896462188228     -0.02959240148142
  C           6.85674869233480     -0.50677858191764     -0.02742589394982
  C          -6.85734848235843      0.50684049018457     -0.02391344637455
  H           3.12282163148733      0.91856908687513     -0.72764967839279
  H          -3.12345345810380     -0.91301157663721     -0.73532658225260
  H           8.06880490863901      0.96590503885439      0.72582940426063
  H           8.88210715819074     -0.16414984713188     -0.12037925791300
  H          -8.06969245821828     -0.97177678720798      0.71717118192764
  H          -8.88271585132361      0.16515063483626     -0.12004788046533
  H           0.69172203234516      1.04780890169477     -0.86490410261444
  H           0.70506013234369      1.03839389469270      0.88945010607826
  H          -0.69236835437121     -1.04138293512448     -0.87333028602580
  H          -0.70570192425649     -1.04612495252327      0.88102897925675
  H           1.83506607579117     -1.18909296240539     -0.86933603539276
  H           1.86239044969149     -1.15987002058241      0.88976915175831
  H          -1.83555682682356      1.19559966267254     -0.85967061796239
  H          -1.86304145548388      1.15206145339194      0.89911205233866
  H           4.32631325592297     -1.19437522379951      0.88574874383513
  H           4.32961543801141     -1.23890753222736     -0.87353934759498
  H          -4.32696647896544      1.18674145768971      0.89518879032336
  H          -4.33006014756231      1.24566606912460     -0.86367879554994
  H           5.56683336238877      0.95146872875785     -0.91288939259792
  H           5.55345131092347      0.97260492935900      0.84387571954373
  H          -5.56743361159803     -0.94422595699661     -0.92108711292889
  H          -5.55428853299958     -0.97971576163204      0.83544421646085
  H           6.87659536307091     -1.15414200411016     -0.90896308445465
  H           6.86032431099487     -1.17033821881672      0.85134426008572
  H          -6.87702080845424      1.16138356672676     -0.90013694014063
  H          -6.86099631067745      1.16320259964700      0.86024261421366
