26
Coordinates from ORCA-job 11051711 E -390.570987664963
  C           0.46270283132270      0.25334353720054     -0.21617097994457
  C          -0.75664531456273      0.79290238303213      0.51343924748244
  C          -0.11420610322928      1.57261751575088     -0.62283276848400
  C          -0.00734812463053     -0.94135900534422     -1.04334108475492
  C           1.82586213644065      0.22014318620604      0.44891301179679
  C          -1.91191453674431     -0.06360629983105      0.16970285139416
  C          -1.54746018353565     -0.84086691218104     -1.07836713761672
  C           1.95066622668178     -0.91601731404924      1.46697886118523
  C           2.94848063951925      0.16255235257669     -0.59037241319651
  C          -3.02935726950521     -0.19682261889163      0.87738430499288
  H          -0.67911809984974      1.19914930163183      1.51343625064981
  H           0.43716512460320      2.45861291617976     -0.33513983769356
  H          -0.65009298048382      1.66785842349727     -1.55850174873251
  H           0.43077063331001     -0.95665536666932     -2.04335697294879
  H           0.28896157533992     -1.86518941660516     -0.54244753809257
  H           1.92838689015878      1.16371038417645      0.99718894201285
  H          -1.87351987256119     -0.28897683065330     -1.96446497027663
  H          -2.03581089216927     -1.81415583770776     -1.11557419211099
  H           1.13519145935327     -0.88616700427138      2.19204923263877
  H           1.93123671570121     -1.89339657965380      0.98018595473489
  H           2.89391612552579     -0.84239080955139      2.01221894536713
  H           3.92845250015557      0.22137414774004     -0.11208045098652
  H           2.91146268221437     -0.77311467025911     -1.15360683795269
  H           2.86720507421128      0.98608053480702     -1.30265370859331
  H          -3.79882780286417     -0.90316531463078      0.59118356322418
  H          -3.21050943440188      0.39521229750055      1.76615547590516
