28
Coordinates from ORCA-job 11052941 E -744.430735225693
  O           2.34190415276592     -0.93788811922347      0.19986008490742
  O           2.08068909872557      1.73469940119422     -0.07122219937841
  O          -0.01681788983051     -2.53843522436273      0.29108648162362
  O          -4.24852148282379     -0.33672958335459      0.03683826009542
  N          -2.71968968773096      1.38512876991217     -0.04978615569228
  C           1.09583610606749     -0.38695414212501      0.04931400522005
  C           0.93075403298005      1.00722884976016     -0.05086554759949
  C          -0.04568207725026     -1.18925924834692      0.12358613147975
  C          -1.46477174220790      0.74734226793367     -0.00947092451491
  C          -0.33545312224054      1.57006556396398     -0.09113976043697
  C          -1.32390843286406     -0.62516891498187      0.09947265901761
  C           3.21520696633547     -0.85783446503619     -0.92742440888064
  C           1.98514323043956      3.14734900386895     -0.09931674249640
  C           0.94224072533610     -3.32676623629614     -0.40982028123647
  C          -3.97040057178898      0.83913699560345     -0.02567918563201
  H          -2.69387538557866      2.39056862929985     -0.10908828968508
  H          -0.45844888716595      2.64045935174879     -0.16862229927219
  H          -2.18180193245138     -1.27265668399967      0.15929157151026
  H           4.11506859374586     -1.40565686967301     -0.65335121662907
  H           2.75796660137194     -1.32576295777117     -1.80462140754374
  H           3.46997569765853      0.17612939122057     -1.15777681064646
  H           1.45030497473244      3.52646159035792      0.77637664953441
  H           3.00783008321463      3.51659652438019     -0.08471356141707
  H           1.48678147870595      3.49685472690776     -1.00865818279442
  H           0.53679722090432     -4.33714717015358     -0.42394631448779
  H           1.05778742914950     -2.97390724142442     -1.43805008743894
  H           1.90928063182575     -3.32085504096361      0.08962982905960
  H          -4.74241981202608      1.62926783156067     -0.07254229666583
