32
Coordinates from ORCA-job 11085323 E -730.614990041980
  O          -0.82893044355153     -1.42049153299518     -1.73910673879852
  O           1.41821554576601      2.63587699013185      0.36540916238796
  O          -0.38265426127110      1.62511402205431     -0.51366095526630
  C          -3.02247877813872     -0.50465162172589     -0.13213661814680
  C          -1.65431339946975     -0.85372485495457      0.43773077516383
  C          -4.09795596500951     -0.38968670266500      0.94503917073634
  C          -0.58533684077534     -1.04516786849805     -0.61620617506316
  C           0.85072797796211     -0.92757509936383     -0.16178729046394
  C          -5.46608241328079     -0.02348390456337      0.37573438502310
  C           1.47646131148683      0.28715292918892      0.14989065988647
  C           1.57608624679101     -2.11039795709806     -0.05493161985471
  C           2.80635284727277      0.29266202607104      0.57566543134007
  C           2.89479804446873     -2.09805065634953      0.37838919234965
  C           3.51124245254212     -0.89398676394545      0.69771750090796
  C           0.72832807517073      1.55491956337356     -0.04013595574406
  C           0.75844715009444      3.89768549547071      0.18249917877668
  H          -2.93809216019533      0.43958025531632     -0.67623867362508
  H          -3.30839951514728     -1.25956997448267     -0.86783320273977
  H          -1.32522927862379     -0.10781469138239      1.16246230653791
  H          -1.69870545547444     -1.80580491351122      0.98592994387283
  H          -4.17004755793593     -1.33730901549967      1.49031441750235
  H          -3.79558951991796      0.36266584545835      1.68160584969765
  H          -6.21974514810479      0.05394354808250      1.16204316471195
  H          -5.42812855477788      0.93543730175509     -0.14691030261140
  H          -5.80617201920855     -0.77530745487327     -0.34068751234182
  H           1.09753677085062     -3.04468365532444     -0.31831448508101
  H           3.28216280634541      1.23616640446413      0.79857389246098
  H           3.44247034560639     -3.02822032849951      0.46053236385308
  H           4.54095800385320     -0.87909682318894      1.02975436328452
  H           1.45730875422686      4.64653730128947      0.54429472023446
  H           0.53168002794524      4.05842965995465     -0.87078490571820
  H          -0.16827004949978      3.92844047631013      0.75449795672699
