34
Coordinates from ORCA-job 11128 E -897.279724106322
  O           0.06993102789993      0.81428300297823     -0.25526900107311
  O          -1.58128438839049     -0.71369861628373     -0.38810658828627
  O           2.92886611566573     -2.09717601123142      0.14829964497621
  O           3.62933906281446      0.65484028189271      0.69224887239929
  O           0.18532331278970     -2.72817790165438      0.51971473523587
  O           1.88652180980568      2.57727274770601     -1.57490969478615
  N          -2.65617240643261      1.87793018191089      1.58019786480792
  C           1.98202302513706     -1.10567496126275      0.51781227362904
  C           2.40142449884064      0.28474419064629      0.06460237007623
  C           0.63666844204706     -1.51627715825210     -0.05988467459555
  C           1.27134517551710      1.28296013048898      0.33904456389284
  C          -0.37976754428132     -0.42681550454565      0.24946155610790
  C           1.55391107641538      2.67045954399362     -0.19734112018938
  C          -2.79803309338913     -0.41920622507512      0.30685468997606
  C          -3.09915428529733     -1.52020896911054      1.32872770227544
  C          -3.87593534192590     -0.33839314687119     -0.77216589585247
  C          -2.70788036124922      0.88360572714595      1.00528262735363
  H           3.80638519145819     -1.75388445020225      0.35950949240590
  H           3.47634687831250      0.74498908078206      1.64169352309601
  H           0.90830145045343     -3.36361148645840      0.44909671791467
  H           1.92358650127268      3.46354155957120     -1.94599227753212
  H           1.87681800002485     -1.09076637050330      1.61620356037145
  H           2.61190120123158      0.27950910122972     -1.00413921060805
  H           0.71776703897839     -1.60486778951662     -1.14938401644666
  H           1.13037503698612      1.37453240155486      1.43013818150611
  H          -0.51500599153530     -0.35626955155794      1.33947165158439
  H           2.38143530708903      3.10071747465637      0.37830275538538
  H           0.65815588050078      3.27996423036593     -0.04164438729547
  H          -2.30546685410071     -1.59432256748335      2.07057313295705
  H          -4.03998592421680     -1.31992373964677      1.84191999255970
  H          -3.16506774103232     -2.47040959028565      0.80035330916907
  H          -4.84943162924363     -0.13673759353171     -0.32635197232369
  H          -3.63536391736866      0.44929890706220     -1.48399069671845
  H          -3.91179155477687     -1.29251392851217     -1.29744268197280
