12
Coordinates from ORCA-job 11126 E -592.257557754587
  S          -0.12636502721012      1.40880508601005      0.17929568270966
  C           0.79501160561244     -0.04781073971690      0.01886166568261
  C          -0.03968575743120     -1.12243827329196     -0.09890494795679
  C           2.28941196022028     -0.03104354887002      0.02020131537442
  C          -1.41977442783354     -0.77835434210358     -0.06052719971089
  C          -1.62127350274711      0.56067824823483      0.08670508665082
  H           0.32542521926115     -2.13431573499060     -0.21027446674115
  H           2.69019087410702      0.37638585032573      0.95132311104290
  H           2.66844161180890     -1.04719254007341     -0.09192246977647
  H           2.68962479411449      0.56942367371483     -0.80008714256510
  H          -2.22325333919118     -1.49662570466483     -0.13915406386375
  H          -2.55509901071114      1.09500902542585      0.14578042915373
