14
Coordinates from ORCA-job 11124 E -307.671896540194
  O           1.15855148348555     -0.67879151374589     -0.13204385802992
  O           0.09098476637385      1.25277954011059      0.29924003083849
  C          -1.19826556128248     -0.74877239484376     -0.13614740190007
  C          -2.47583284671120      0.05701752596093      0.04947258172166
  C           0.05398833104332      0.07707721140077      0.04007121743372
  C           2.41182712196909      0.00619617053385      0.01270574719219
  H          -1.14411443582490     -1.58172970407378      0.57040724262652
  H          -1.15335107640116     -1.20474250545537     -1.12916342931438
  H          -2.52114642241166      0.49460960024479      1.04679054712622
  H          -2.53032840131808      0.87523213436237     -0.66866606413974
  H          -3.34979183621062     -0.58122377770232     -0.08749662359178
  H           2.50314149625227      0.42793750675659      1.01330757158234
  H           3.17787210326652     -0.74558981121445     -0.15673468915657
  H           2.49456827776949      0.80960401766570     -0.71880887238867
