20
Coordinates from ORCA-job 11160 E -386.279459335228
  O          -1.59919686502033     -0.64561358947825     -0.31066340966404
  O          -0.95347390591653      1.29750825161433      0.61533839037636
  C           1.71290848759304     -0.18416665697681     -0.33484916603354
  C           0.43854408589348      0.28251184251600     -1.07752852395007
  C           2.22812606310270      0.86440793395003      0.65095720150914
  C           1.50862457238718     -1.53785914610511      0.34678696176396
  C          -0.75842693219184      0.40154704195047     -0.16814233493694
  C          -2.74681510515968     -0.64301994585806      0.55148114534224
  H           2.47060554288578     -0.31260392783016     -1.11501555166442
  H           0.61683565800851      1.26770779799401     -1.51150505470275
  H           0.20793551076843     -0.41753637124219     -1.88033477058167
  H           1.50445061128770      1.04987609480993      1.44560332967952
  H           3.16076972858308      0.52813553575290      1.10895389331199
  H           2.41999930685437      1.81644933389324      0.15199816822623
  H           0.78890942631350     -1.46179063516853      1.16571717539165
  H           1.13685164390620     -2.28853832579367     -0.35323068894496
  H           2.44839316167599     -1.90022031917404      0.76763166350772
  H          -2.43837370872706     -0.65857896529596      1.59655133059709
  H          -3.35388456416230      0.24449804472878      0.37576547758748
  H          -3.30224671808222     -1.54318799428691      0.30283176318500
