16
Coordinates from ORCA-job 11173 E -271.710197945933
  O          -2.55249474309570     -0.13647788961453      0.40139130214544
  C           0.93948027637896     -0.03448361935106     -0.00015137540865
  C          -0.26910414629666     -0.50353618642128     -0.32473392935316
  C           2.10412351699457     -0.96897303691558      0.17686810162808
  C           1.27529239897773      1.41640222777368      0.20367996490379
  C          -1.53246355173862      0.27095506757715     -0.51956026499267
  H          -2.17200130699628     -0.10901032940431      1.28673263161669
  H          -0.38552848933111     -1.57807497049112     -0.44101475407910
  H           2.52887207440870     -0.87406647035204      1.18130660500231
  H           1.81704123509231     -2.00856574562369      0.02094463075564
  H           2.90797673728761     -0.72501837519632     -0.52510425621501
  H           1.75467356029004      1.56042083224679      1.17666380714963
  H           1.99692769393073      1.74886107361998     -0.54913128624092
  H           0.41010444612664      2.07310303954648      0.14990973849123
  H          -1.95238563131747      0.06847303670487     -1.50763096049000
  H          -1.36509507071145      1.34960734590097     -0.45177995491330
