26
Coordinates from ORCA-job 11233 E -315.626922410813
  C           0.70658447236889     -0.52813240300576     -0.03028288220686
  C          -0.70201540104168     -0.23151910766812     -0.58788527150776
  C           1.28594416462433      0.67569419444184      0.74549803342809
  C           1.62058292988389     -0.88490541134547     -1.21100857721831
  C           0.65916693133508     -1.73124024294576      0.92199361329653
  C          -1.76729478817609      0.20040157409412      0.41852738561576
  C           1.35790589903144      1.99912349406491     -0.01320368439074
  C          -3.12135756122410      0.44206732593382     -0.24506715179231
  H          -0.61965044624082      0.53932676673457     -1.36080927588660
  H          -1.05382212140836     -1.13111401703476     -1.10582971510870
  H           0.69855653105209      0.82040362601709      1.65654456013191
  H           2.29146837929107      0.40198899637311      1.08163921562789
  H           2.63843932457978     -1.08976978975660     -0.87001430789181
  H           1.25427316210920     -1.77679447847927     -1.72497993713948
  H           1.66636458515235     -0.07918485539882     -1.94551221290517
  H           0.05732928851657     -1.52259650796669      1.80793876254348
  H           0.23587997485546     -2.60754202511888      0.42484302017460
  H           1.66435252615494     -1.99252229312789      1.26145581424993
  H          -1.87832959998258     -0.56043592627214      1.19557379103556
  H          -1.45002249301132      1.11395669907942      0.92874937717924
  H           1.80544427372262      2.77317109231105      0.61335493786191
  H           1.96552001298470      1.91908075556444     -0.91612734150209
  H           0.36839170887385      2.35162513845046     -0.30990411612939
  H          -3.87381977674426      0.75356308757919      0.48220303437909
  H          -3.05137434920052      1.22239925745841     -1.00728620269124
  H          -3.48608962750652     -0.46425094998229     -0.73510486915352
