16
Coordinates from ORCA-job 11251 E -271.738682818517
  O          -0.93095931533415      1.21819059929832     -0.54290204074675
  C           0.70090528496556     -0.27131765233838      0.38180778244035
  C           1.18301768527379     -1.18610106696074     -0.75764711147503
  C           1.64479461286586      0.91001570542753      0.58461013750165
  C          -0.71751722266941      0.18985488943151      0.05716614797504
  C          -1.84299919982098     -0.71370580750448      0.50816668672478
  H           0.65588835059395     -0.86907476927834      1.29843451535327
  H           2.18001433635726     -1.56959849558026     -0.53476418750834
  H           0.52058611374124     -2.04083883938837     -0.90635765973604
  H           1.23332113632490     -0.62696880305271     -1.69377356358047
  H           1.32002658864669      1.53948283204285      1.41465996768911
  H           2.65539050235319      0.55662466512462      0.79763058677844
  H           1.67376628779718      1.53166517581575     -0.31013842127842
  H          -1.94437189228386     -0.63411427808140      1.59480472906705
  H          -2.77822573133249     -0.41532180376257      0.03944138576664
  H          -1.62466153747873     -1.76025935119333      0.28599104502870
