19
Coordinates from ORCA-job 1125227 E -572.382885536251
  O          -0.04533477398316      0.39550077790186     -0.28784780283675
  O           2.87673705667705      0.39853054858501      0.56251439798591
  O          -3.52341292747853     -0.03769709203988      0.55372961367115
  O          -2.45763853874895      1.75654309707924     -0.21809147902968
  C           0.92275782520496     -0.54715223309783     -0.37936647133254
  C           2.30251465063382     -0.07610622974536     -0.64240650463091
  C           0.39034952843791     -1.78512788108447     -0.17679474191306
  C          -1.21223985502699     -0.24113841292158     -0.01220350036952
  C          -0.99487991718591     -1.58903249194976      0.06180240332809
  C          -2.41506020752373      0.59982136593810      0.08950626789033
  C           4.16311383595938      0.95091241823035      0.36440693451893
  H          -3.30495609951544     -0.92462521584215      0.86684983196736
  H           2.28033008187837      0.72398850289845     -1.39440652467793
  H           2.89174862486447     -0.90844246023496     -1.04908552769209
  H           0.92702876984751     -2.71840580957030     -0.19455168589176
  H          -1.72911347625107     -2.35833444549996      0.23861341290906
  H           4.51924456009655      1.28772885614995      1.33611763729798
  H           4.86216706431562      0.20536402715008     -0.03656636176686
  H           4.12897779779813      1.80541667805323     -0.32299689942769
