42
Coordinates from ORCA-job 11265913 E -923.741815043137
  O           1.83443904411572     -1.66459459469385      0.50306577715481
  O          -2.40100915613650     -1.13808353055640      0.34029947145383
  O           3.57597059247844      0.79706352944900     -1.66170235028123
  O          -0.92499511326487     -2.84631008778751      0.09896653324053
  C           1.91126834329771      0.69047404944383      0.03526126269506
  C           1.24159864336371     -0.65146134394454     -0.30194375638116
  C           1.12036898108795      1.85674994394302     -0.57772242481473
  C          -0.30672447155170      1.95687363853145     -0.01816772405749
  C          -0.22493425992911     -0.53607143119464     -0.05538064759426
  C          -0.92371211853311      0.60361908612272      0.06922590308689
  C           3.34861022738653      0.66745434503615     -0.47982662021452
  C          -2.30911289332868      0.24787033694409      0.31739361560949
  C          -1.13880447013606     -1.66238620754471      0.11702854504816
  C           4.43004775494036      0.44963190816518      0.54792830606602
  C          -3.37399807211144      1.02869133911569      0.50542888840848
  C           5.83794644698803      0.34768895522202     -0.01914089751693
  C          -4.77053163424737      0.55972205265185      0.73591279006449
  C           6.88720830515709      0.13099708547139      1.06772113663833
  C          -5.72429328085776      0.97826704272410     -0.39427618280339
  C          -7.16115731578418      0.53648932163222     -0.13405315018867
  H           1.30598712413594     -2.46951964311118      0.40156322399014
  H           1.91476951915710      0.77356998208510      1.12585415886230
  H           1.42006836851623     -0.86734360091683     -1.36424336807415
  H           1.65208355206233      2.79279763634825     -0.39903276889943
  H           1.08889963173546      1.72072545253627     -1.66012886763272
  H          -0.29767161517359      2.40573368233838      0.98134714994114
  H          -0.91322464359851      2.61812952488180     -0.64204461994229
  H           4.35632510623329      1.26670698895917      1.27833689944271
  H           4.15265905620364     -0.45299875688110      1.10544884096457
  H          -3.19932859989404      2.09816094953301      0.46087834635769
  H           5.86978852602641     -0.47133285613358     -0.74123089702894
  H           6.06363497521178      1.25331562116836     -0.58677302523761
  H          -4.78452834051469     -0.52508379981242      0.84820817220585
  H          -5.13843003255856      0.98469646611923      1.67734027330805
  H           6.69409833674840     -0.78794637418269      1.62694952510105
  H           7.88857278107359      0.05535837916683      0.64015177348417
  H           6.89373288415029      0.95723949909312      1.78368547160361
  H          -5.68629265601272      2.06545846200875     -0.51567924528130
  H          -5.36616248588486      0.54977310506792     -1.33428014807395
  H          -7.54768657881981      0.97670562251771      0.78844802295257
  H          -7.82086692747209      0.83742338795757     -0.94970552757256
  H          -7.22565253426035     -0.54958716747473     -0.03574886608461
