40
Coordinates from ORCA-job 11289099 E -996.761023167621
  O           0.52279495322151     -0.28909940251411     -0.11166782218753
  O          -0.25169087310540      1.15835015749158     -1.67836424221449
  O           3.91747969106117      1.96249800344986      0.55663680227333
  O           3.69177467128610     -0.72160305946173      1.61416284542645
  O           2.28876465681958      2.41072576218442     -1.78547809412647
  O           0.14415388829640     -2.91228179347549      0.87146193040856
  C           3.02277035700947      0.97882480127302      0.02177070790773
  C           2.58250038398281     -0.01594450068325      1.08524262505012
  C           1.84481859890291      1.63601081483784     -0.68909027551410
  C           1.60493325929270     -1.01193669151992      0.46464886286207
  C           0.89042656798182      0.55810715891012     -1.19084767190655
  C           1.00558452530364     -1.96964393431793      1.47844857441747
  C          -1.11293827928522      0.31555573630505     -2.44656910732329
  C          -2.54589827503949      0.43017538274126     -1.93275630479852
  C          -2.71538748431032     -0.13571803891595     -0.54880529329196
  C          -2.95142704206235     -1.49837401505985     -0.36423203003034
  C          -2.57704710939438      0.67194790494018      0.57662215980632
  C          -3.03988534492167     -2.04219337683727      0.91199467616339
  C          -2.66209271243743      0.13431835788431      1.85474709961026
  C          -2.88886624299683     -1.22511867947312      2.02784276499719
  H           3.43833496348688      2.48268548225451      1.21543175814953
  H           4.40576734568431     -0.08508465502676      1.74628606777595
  H           3.08261817942626      2.88200865452532     -1.50236442369140
  H          -0.63026757193138     -2.43478434776224      0.54518503634800
  H           3.62197032457076      0.44424820186294     -0.72036544342703
  H           2.05440709259599      0.52534212150412      1.88628782212564
  H           1.27986891397415      2.25446066138743      0.02437793086730
  H           2.12648066921076     -1.59226551070685     -0.30906283100208
  H           1.39036759499451     -0.04208716610285     -1.96914892202145
  H           0.47684940242837     -1.38710864364214      2.24374940577609
  H           1.80887224934685     -2.52590712838985      1.95977899119894
  H          -1.06105891631624      0.63927142048750     -3.49051777041520
  H          -0.77712997209084     -0.72223609773554     -2.38424849871106
  H          -2.83470156438669      1.48316337984599     -1.95161640316350
  H          -3.19530175669734     -0.09621735953577     -2.63786938010887
  H          -3.06831390740326     -2.14176723330870     -1.22912685343889
  H          -2.38197857893768      1.72877367774654      0.44689821859482
  H          -3.22210352586617     -3.10199572729191      1.03644139721941
  H          -2.54683527589634      0.77794785348334      2.71788303312056
  H          -2.95156285579791     -1.64729817135410      3.02236565727360
