55
Coordinates from ORCA-job 11281091 E -1380.400410885773
  O          -1.72270449420309      1.45706883584001     -0.75658424078398
  O          -0.41535591121063     -2.73171245788978     -2.68201323935648
  O           0.09368324904541      3.49105266904268     -0.20607363841251
  O          -4.72725033487392     -0.48127638583231      2.91990076041505
  O           6.27973359420109     -0.90558350232855      1.37065065688687
  O          -6.85707545973790     -1.34750641873586      1.65696468812131
  O           8.35909988853855     -1.17523976001417      0.55346970035439
  C          -1.24629418048051     -0.81211343392706     -1.39310356288008
  C          -2.34811795506618      0.28486980896295     -1.34002189780317
  C           0.00694974073613      0.00526271286177     -1.22019783833919
  C          -0.37316439969353      1.27838216582718     -0.84254482944975
  C          -1.33256701377003     -1.64461518518951     -2.66694735406932
  C          -3.57433816525561     -0.09797092541859     -0.56865661333658
  C           1.34775035742727     -0.32888139365917     -1.34694978985995
  C           2.31138662322713      0.64256381930875     -1.08960564400156
  C           0.56774639784983      2.27059183229511     -0.57076295840183
  C           1.91246076505350      1.92711013170611     -0.70262432508159
  C           3.77884910789435      0.30869562170012     -1.17488396562015
  C          -3.55537792406680     -0.07415942473236      0.82875228617924
  C          -4.71073604940590     -0.53943564323848     -1.22386645328373
  C           4.35337385068643     -0.15461902231117      0.17035167710215
  C          -4.65468847481520     -0.48682548610850      1.56565412474630
  C          -5.81680695479796     -0.96921056252772     -0.49228076601190
  C          -5.80221831681931     -0.94915748397519      0.89091004745070
  C           5.82712481847943     -0.48168849134935      0.06720924860474
  C           1.03569133331933      4.51474916551653      0.05823671570953
  C          -3.60480992353427     -0.00511995711272      3.64228477177323
  C           7.58423574409817     -1.22796734641897      1.47445042517167
  C           7.92412397528981     -1.65458478481133      2.87727285421744
  H          -0.66948436261980     -3.35552026371928     -1.99283776768717
  H          -7.57792403839953     -1.62373699174834      1.07996310856538
  H          -1.37378675454519     -1.48860724250944     -0.53861611393301
  H          -2.63133553600933      0.55401635023261     -2.36414819867842
  H          -1.07736162771574     -1.02761192653436     -3.52987368450821
  H          -2.36122160756036     -2.00307610298097     -2.79958192467512
  H           1.63446198290061     -1.32556615456253     -1.65437928038316
  H           2.67451400909828      2.66982848234860     -0.51130200786951
  H           3.92996829805928     -0.47626690090963     -1.92075700918031
  H           4.33768195089278      1.18237150524379     -1.52341790700537
  H          -2.67368816303263      0.29872636385916      1.32737009296999
  H          -4.74870004921849     -0.54670162053958     -2.30584721919723
  H           4.20498954669151      0.62512975202438      0.92180063492564
  H           3.80663821862140     -1.03508340205404      0.51689827911214
  H          -6.70776041035360     -1.31318199157018     -1.00652070783959
  H           6.41443537207291      0.38414272731358     -0.24544242681276
  H           6.01572105178248     -1.28375987881258     -0.64935510063072
  H           1.69367511004752      4.24722221467276      0.89098251547565
  H           1.64440290504363      4.73490316197919     -0.82422911004199
  H           0.45518237876468      5.39473227098383      0.32505686550784
  H          -3.87555807797544     -0.07425546960768      4.69305123209568
  H          -2.71908397760038     -0.61946228235757      3.45335548328105
  H          -3.38084773165048      1.03551266130645      3.39005859365123
  H           7.68497449844765     -0.85371657429890      3.57838143391364
  H           7.32473602603173     -2.52239146192713      3.15660083623192
  H           8.98113010011088     -1.89851232331257      2.93648054267155
