62
Coordinates from ORCA-job 11282492 E -1497.884498296677
  O           3.61409150424161      0.87591269674363     -2.73218871085582
  O          -0.50935909432824      3.32519006521588     -3.15930103456889
  O          -4.96633193355036     -3.34343743625221      1.05826232168579
  O           4.07256201985793     -0.65194939261707      4.26206737748389
  O          -3.11111014795968      3.28042005738920      3.66661149167608
  C           0.29353301481382      0.22823098456266     -1.41563233745343
  C           1.65220987153161      0.07715093987364     -1.71033215320889
  C          -0.39830913587030     -0.80395717080895     -0.56198587370323
  C          -0.44855113241955      1.31158947702985     -1.91404490497198
  C           2.45920145954676     -1.08404873288340     -1.17713618720895
  C          -1.00466475476247     -1.95439495257665     -1.39261005401255
  C          -1.91520510526570      1.49086426056253     -1.60040620031958
  C           2.27942636652769      1.05060576690726     -2.49826943495093
  C           0.21244687791340      2.25394393471063     -2.69554146459274
  C           1.56640166501944      2.13557477581063     -2.99179455618584
  C          -1.70614090289501     -2.95045231782609     -0.51085492807174
  C           2.87919615376491     -0.94062735192995      0.27193487111030
  C          -2.20389780752769      1.97345855035637     -0.19251480925125
  C          -3.02798560449916     -2.73758636926439     -0.13456233907098
  C           2.87017324594071     -2.04120198171051      1.12752690394923
  C           3.29932404236102      0.28105557927100      0.79015379765649
  C          -1.02688577493480     -4.05929543481213     -0.00455569700170
  C          -3.33682407029165      1.53182439174365      0.49003909371926
  C          -1.36531582276679      2.87508740185796      0.45547138837581
  C          -3.66638326899792     -3.61550529426626      0.73405634382087
  C           3.26912472625078     -1.93921232625106      2.45214297884433
  C           3.70403753150532      0.40091449723761      2.11294821609687
  C          -1.66601282776676     -4.93504144754315      0.86178240363003
  C          -3.63359044161165      1.97106986623402      1.77138270582123
  C          -1.64819005353076      3.32687141960851      1.73795396649490
  C           4.29544392596888      1.82455497656803     -3.52922046940772
  C           3.69057029107208     -0.71131925329319      2.94905304534573
  C          -2.78520784785217      2.87548141422847      2.40034617588206
  C          -2.98611606142219     -4.72066559406778      1.23749273970028
  H           0.06100643688362      3.88565682976819     -3.69564848066465
  H          -5.29146327963258     -4.01297360257639      1.67039868545842
  H           4.33053618963529      0.25067101735296      4.47918892219232
  H          -2.44049104424820      3.89296731463952      3.98828383792024
  H           0.29602239300631     -1.22280980063656      0.16424083377701
  H          -1.19073811631621     -0.33894148568681      0.02136914386146
  H           1.89328703271192     -2.01012882477606     -1.28308647552961
  H           3.35037717758378     -1.20097288388790     -1.79471162881943
  H          -1.70287483352774     -1.54232560068328     -2.12403451679948
  H          -0.21393110095947     -2.44860634430894     -1.96059042309922
  H          -2.33824544102096      2.20077904565473     -2.31222513394642
  H          -2.44787800949414      0.55180217116616     -1.75922482779922
  H           2.04523698306597      2.89226962766146     -3.59783611004505
  H          -3.57946529431262     -1.88436306559453     -0.50909408922582
  H           2.53358071894940     -3.00117118753092      0.75316344929116
  H           3.30404425311133      1.15635246494731      0.15387175136584
  H           0.00222931050770     -4.23505421414745     -0.29228809364667
  H          -4.00047353680505      0.81940445705954      0.01371777627794
  H          -0.47027975750558      3.22335892951674     -0.04337000664917
  H           3.25013860901888     -2.79684611598341      3.11127569230053
  H           4.02645290468517      1.36301776963165      2.49734459098963
  H          -1.13569119481417     -5.79524087652486      1.25042157181431
  H          -4.50945135495873      1.61469773947644      2.29684142154495
  H          -0.97947293940898      4.02788519419706      2.22653333007676
  H           5.32698403890562      1.48451126506492     -3.58543539388771
  H           3.87577410715202      1.87532461755780     -4.53873638680655
  H           4.26845547600008      2.82103502665254     -3.07697214711387
  H          -3.48471963627578     -5.40644146781863      1.91359004070541
