56
Coordinates from ORCA-job 11351007 E -1604.099341778060
  O          -2.71554868076748     -0.76321953240234      0.29372039136049
  O          -1.46952251528037      0.83321734355666     -0.72936774757028
  O          -6.17697656700812      1.24509687639724     -0.49136863512148
  O          -6.21841797921085     -0.94079550417243      1.41134449010803
  O          -3.68833859714587      2.58476576183534     -0.71273971719360
  O           0.06656025004393      1.44928946922604      0.84719854494287
  O          -2.53307936271758     -3.04323838605201      2.07269109854776
  O           4.69699075745702      0.86533436775116      0.26643997378244
  O           3.77527492360889     -1.84832159862505      1.44900301815928
  O           1.04614354572172     -0.31055278204772     -4.69287797810137
  O           3.96840764039246      1.93023317425349      2.11135919154481
  O           4.53949236396637     -2.21979865685417     -0.63553642912365
  C          -5.03685802516932      0.81556492529348      0.23555233849499
  C          -5.09946874075125     -0.66981714221265      0.56766106671072
  C          -3.81070787254404      1.18306949208127     -0.59125068482215
  C          -3.76711616306198     -1.12543646508823      1.17321066099687
  C          -2.57277331431236      0.63369923935541      0.10026082847419
  C          -0.25070838148764      0.46944883292002     -0.18221422349283
  C          -3.69990205689505     -2.62894428894006      1.37999100736761
  C           2.18809137731523      0.09614133272312     -0.62634616454439
  C           0.83366882933943      0.40809073774616     -1.22055006120111
  C           2.39063138336988      0.97317279746576      0.58836324389245
  C           2.28448073149713     -1.42928066595498     -0.33256896410370
  C           0.57243851026647      0.60892932623243     -2.50927861424845
  C           1.35202432867840      1.57716833945219      1.18807846944189
  C           3.72700114125719      1.31351350657091      1.09813382915136
  C           3.65645732984757     -1.87536544622916      0.10756820091865
  C           1.53966820670134      0.53103159356972     -3.64860598113424
  C           6.04233841508054      1.17125598382855      0.64782791034918
  C           5.05629019594910     -2.22903789896459      1.97063782801046
  H          -6.96116004194865      0.91002415780009     -0.03903508881405
  H          -6.09161987802627     -0.48032505777810      2.25095189766784
  H          -4.52936558360847      2.91864490479900     -1.04844416174357
  H          -2.61714171194085     -2.80435064229105      3.00194548792034
  H           0.89933046908801     -1.18945039297070     -4.32530961136914
  H          -4.97057665185407      1.37312462063126      1.18494707744686
  H          -5.28697734790557     -1.23516492859072     -0.34781156679078
  H          -3.88253003553684      0.70297810159254     -1.57499530237620
  H          -3.62759128009897     -0.62042550638591      2.14594631692380
  H          -2.42096977243712      1.13107200526605      1.06803939953694
  H          -0.34057800520134     -0.48694345594169      0.34124656725762
  H          -3.65821071454108     -3.11052844035420      0.40191117549528
  H          -4.61245709660081     -2.95848825122798      1.88569020637575
  H           2.96533900432999      0.33545974049171     -1.34728011558799
  H           1.55499992196168     -1.70520975557800      0.42798941908052
  H           2.05665443286896     -1.96535003526809     -1.25317531846752
  H          -0.44787032548626      0.83246550413266     -2.79774976239929
  H           1.49708310289050      2.25809226909967      2.01578323026975
  H           2.53244738510504      0.20392277564418     -3.32825819012004
  H           1.65016102489388      1.51634695699346     -4.10792518150655
  H           6.23732306808214      0.84198549532155      1.66762022532933
  H           6.67343498592529      0.63915926525651     -0.05879617624066
  H           6.21891880845341      2.24520980983671      0.58689072274132
  H           5.00091012185130     -2.05352662358823      3.04125076636871
  H           5.25181506294189     -3.28082714420297      1.76253992031300
  H           5.84414838265350     -1.62771610540330      1.52103417109194
