25
Coordinates from ORCA-job 11367121 E -501.761636398320
  O          -0.97405826803791     -1.45486224446660      1.39382725690235
  O           2.02056578413116      2.13599243234386      0.19160386110302
  C          -1.18523432823622      0.44882281739485     -0.19987318529867
  C          -0.69558398735935     -0.99010100849018      0.06429782488670
  C          -0.24442718739822      1.43436363080351      0.50943760300702
  C          -2.61441071312630      0.61950738958210      0.31939602261541
  C          -1.17067668611120      0.70922994166736     -1.71406720785003
  C           0.78175539617050     -1.18429714722773     -0.20339745923004
  C           1.22083593717247      1.21913497406420      0.18661350753814
  C           1.64072834526081     -0.16025011468325     -0.10562107293667
  C           1.21452392016171     -2.58053813350821     -0.51277674387404
  H          -0.33507320675374     -1.05510769071042      1.99559505035252
  H          -1.26827557906533     -1.66660780425299     -0.57559974491588
  H          -0.49818959664727      2.46878397426871      0.27451401915254
  H          -0.35051426350562      1.33098410860320      1.59618011164171
  H          -2.67412251657567      0.43215120383675      1.39036730413019
  H          -2.96660569096308      1.63443578379821      0.12358044162084
  H          -3.29481583479427     -0.07452565787746     -0.17984445922682
  H          -1.53180697424696      1.71736111161146     -1.92456806974487
  H          -0.17236448290764      0.61643700992741     -2.14228826655284
  H          -1.82691689057168      0.00599968202015     -2.23184297556818
  H           2.70452985521537     -0.30162097846046     -0.26080767635078
  H           0.82930267596800     -3.27139105877233      0.24128759694504
  H           0.79717894819429     -2.89919210336925     -1.47336343591406
  H           2.29903134402617     -2.67123411810289     -0.55910630243261
