51
Coordinates from ORCA-job 11361225 E -1414.325381318827
  O           2.51989043243626      0.88697822279326     -0.35139707603087
  O           0.35625807480873      0.30461843209875     -0.72249287343301
  O          -0.55936974614858      0.65297156985691      1.39778282239655
  O           1.08507973799176     -2.39863154938415     -0.95413006716805
  O           3.82678087009300     -2.79493990340696     -1.55928381552638
  O           5.65387928038851     -1.04118295579913     -0.16009091226794
  O          -3.99352903986150     -2.01050860642120     -0.71703480279170
  O          -2.60037706670408      0.55805941038903      2.47859504656488
  O           4.22856454159584      2.84054898884309      0.96585249155679
  O          -3.54427933213161     -2.30740579359286      1.43184491026570
  C           2.00939130656357     -1.33821389981397     -1.11099825378976
  C           3.40388220536252     -1.76526650630285     -0.67784954135243
  C           1.56721233593701     -0.16506564424861     -0.24864542093340
  C           4.38587381641640     -0.60149229470688     -0.64843059455097
  C           3.79836548086457      0.56079660690554      0.16225548992103
  C          -1.60480818699765      1.58174565587811     -0.62527845397639
  C          -0.32822698454047      1.21591055813345      0.13586670732448
  C          -2.46374431207758      0.34575294434667     -0.67584294957593
  C          -2.49153934833500     -0.46846448585605      0.38068118964333
  C          -1.73034851874148     -0.13811216142558      1.62828092713283
  C          -3.27793933743096      0.02411079335628     -1.88672001392647
  C           4.66427499027300      1.80779466915601      0.09704705297948
  C          -2.34326022471989      2.73908076191390     -0.00509468545386
  C          -3.49631267675277     -1.47485914898914     -1.95595819202233
  C          -3.35671591035707     -1.66500794259718      0.43091667380785
  C          -2.61002385570634      3.86840020190515     -0.64717793167242
  C          -2.14856673308356      0.63526205029689      3.82359143719295
  H           1.47198850478718     -3.17906287017392     -1.37001909413742
  H           4.75442262626805     -2.98309213094313     -1.36951789345702
  H           5.55202149291829     -1.31242515972705      0.76133029956182
  H           4.38014016451173      2.56854572920506      1.87738483799996
  H           2.04325450387821     -0.99613454095624     -2.15262809726223
  H           3.32163396364729     -2.16622138726005      0.34627326888801
  H           1.47912693048626     -0.47676648758193      0.80089346546554
  H           4.57390091853020     -0.26454686249419     -1.67021750140318
  H           3.70537763951229      0.24148312128423      1.21680451389013
  H          -1.30011189966390      1.85548403001473     -1.63668827753135
  H           0.30070101339900      2.08884432093279      0.31285100672334
  H          -1.38599453687553     -1.04968131147758      2.12331314534275
  H          -4.23144961745008      0.56250966637947     -1.84404516511670
  H          -2.76519938074324      0.35715479504942     -2.79236876442412
  H           4.60342446780199      2.21813404732590     -0.91198390109369
  H           5.70413162301083      1.52628563431665      0.29091396345879
  H          -2.67306928735964      2.58887801681572      1.01678769729953
  H          -2.55325028504281     -1.97609581834118     -2.19229642903436
  H          -4.23853034651424     -1.74707877546634     -2.70361155270512
  H          -3.15074099017147      4.67480338894986     -0.16850730412453
  H          -2.29519657795535      4.03036224618667     -1.67225855671540
  H          -2.93259260236625      1.13562922121387      4.38839004511078
  H          -1.99243265659947     -0.36768494955989      4.23512551637484
  H          -1.22117546715197      1.20922110297863      3.89840061257562
