24
Coordinates from ORCA-job 11387 E -464.435773925956
  C          -0.16772496122875     -0.69128548754706     -0.00024444296996
  C           0.16767719405078      0.69137982669412     -0.00026486995329
  C          -1.53037851132588     -1.07050545514218     -0.00016188914688
  C           1.53033221756730      1.07060071791425     -0.00034215988250
  C          -2.54007595685020     -0.14029502047991     -0.00008951215037
  C           2.54003115790805      0.14039126447758     -0.00037464613385
  C           0.88470066725059     -1.63693714573874     -0.00031200368486
  C          -0.88474907389396      1.63703440804973     -0.00021020157776
  C           2.19236780023522     -1.23360918491046     -0.00036704521342
  C          -2.19241737931677      1.23370620242930     -0.00011617514671
  C          -3.98837297262196     -0.54335713456647      0.00006664699508
  C           3.98832810192876      0.54345399725816     -0.00034482377496
  H          -1.77175346939662     -2.12784735830729     -0.00015732018290
  H           1.77170664236049      2.12794314297324     -0.00036746645487
  H           0.63892533554701     -2.69238466374225     -0.00031539373830
  H          -0.63897330076959      2.69248464656816     -0.00024801543438
  H           2.98363438708832     -1.97451864902724     -0.00042918106311
  H          -2.98368436096834      1.97461401108883     -0.00008606052737
  H          -4.50609083851834     -0.15147001828313      0.87963065166049
  H          -4.50659453716786     -0.15024293904458     -0.87864876128697
  H          -4.09857524553344     -1.62777034109026     -0.00066137676110
  H           4.50608775868917      0.15167986319012      0.87924485187507
  H           4.50651332641206      0.15022938578333     -0.87903238624056
  H           4.09853001855396      1.62786793145275     -0.00121041920653
