38
Coordinates from ORCA-job 11426211 E -975.472096759979
  O          -0.60977388457470     -2.34066738166962     -0.80251022876774
  O           3.55408761981617      1.86103520715416      0.11123201359781
  O          -1.08427638590676      2.36133467956826     -0.59199341338824
  O          -2.71726636406908     -0.24654854256739      1.38087337599975
  N           0.96433526730148      1.42498461938738     -0.32378129337899
  C           1.31547667500245     -0.94376073688538     -0.43928213381748
  C          -0.92414557935023     -0.00037912140223     -0.73941452128422
  C           1.81577653123811      0.35253316452328     -0.26791356742177
  C          -0.10598686897401     -1.07750945266679     -0.64971599903557
  C          -2.39411566490723     -0.09262275950701     -0.98098185929436
  C          -0.39542903839246      1.34875603971536     -0.55728473433728
  C           3.19198737605925      0.55643845961370     -0.04689526759926
  C           2.20142563765147     -2.03338586901224     -0.41318124970621
  C           4.04692659315790     -0.52796634341620     -0.01122439862939
  C           3.54471478967913     -1.82321722183596     -0.20158073160952
  C          -3.20687245473281      0.04259606268216      0.30721475563730
  C          -4.63226254373916      0.48385666340341      0.24054395284975
  C          -0.91624368705699     -3.01177237978515      0.43065029110477
  C          -5.31661514217588      0.64977227741660      1.56548605021817
  C           4.92353752281734      2.15266754809325      0.33974688052630
  C          -5.25240394340141      0.68496084932534     -0.92357068344808
  H           1.34409306485560      2.35004929631730     -0.18448621276955
  H          -2.68406446745370      0.69159698047613     -1.67761891668064
  H          -2.64188732545053     -1.05924967071700     -1.42527811518253
  H           1.81408310058808     -3.02758737777287     -0.57929804515857
  H           5.10433363256482     -0.38574575283164      0.15514008969113
  H           4.22927874944806     -2.66052172398998     -0.18346550415918
  H          -0.01051790820887     -3.17016555712684      1.02139420749760
  H          -1.62986274447709     -2.42872996086846      1.01389295993674
  H          -1.34402550085133     -3.97230815276059      0.15202632469092
  H          -4.79346657088172      1.38853398762658      2.17547487236900
  H          -6.35031309429849      0.96680732485281      1.43166965200514
  H          -5.29860030329567     -0.28404197658556      2.13000974922697
  H           4.98886846604192      3.23333773929168      0.43740171673929
  H           5.27827801779263      1.68033360074284      1.25995617687655
  H           5.54154291117446      1.82345971462726     -0.50019449456289
  H          -6.29473799567493      0.97779988801498     -0.95624813278433
  H          -4.75625548731579      0.56712187856843     -1.87605456595137
