40
Coordinates from ORCA-job 11426154 E -939.550282306184
  O           4.09811726735423      2.64489054579518     -0.32544705568377
  O           5.65526549226987      0.55872707375717      0.34890178129819
  O          -6.24072101374454      0.87728606783274     -0.39468549142018
  N          -0.33197309168132     -1.64035089940821     -0.49190713318928
  C           0.06802838066494     -0.24478444667533     -0.33016916273598
  C           1.56876486815539     -0.06023495656467     -0.16177197240154
  C           0.33218245108978     -2.51333000871426      0.46789427679816
  C           1.85453523330077     -2.52186525582783      0.32298110393174
  C           2.40448120046953     -1.12417468442906      0.17590114002652
  C          -0.71625085497718      0.41863185246344      0.82943342920062
  C          -0.23136093393492     -2.10761211817944     -1.86395430388004
  C           2.12513311627856      1.21051886470232     -0.33332700132102
  C          -2.18838862528550      0.52890150964463      0.54971141313077
  C           3.77278230015249     -0.89661765038985      0.34264521700226
  C           3.47791417018914      1.42570785986518     -0.16819010439425
  C           4.31769684716238      0.36195566718400      0.17837015670601
  C          -2.72689083803650      1.70057464759750      0.01785286350791
  C          -3.05265666975627     -0.54307229807687      0.76173758348997
  C          -4.07391774400451      1.81048672939954     -0.29517790912886
  C          -4.40403923789201     -0.45056966402479      0.45652842571330
  C          -4.91838069264047      0.72803854842379     -0.07544819834065
  H           3.44798513069656      3.31911259406428     -0.54788477426752
  H           5.84440956133378      1.49369432972886      0.19424275493272
  H          -6.71234606568903      0.06162693261014     -0.19260538354326
  H          -0.23603380907107      0.27436407202255     -1.24323994537466
  H           0.06763269333107     -2.17893372499110      1.47395399010521
  H          -0.06989770472473     -3.52236972269532      0.35455734209526
  H           2.30854894533658     -3.01603707449447      1.18599237674460
  H           2.14090452402933     -3.11548992798313     -0.55191576591723
  H          -0.53652140046960     -0.14813319814304      1.74535392462075
  H          -0.29875732600337      1.41236949347632      0.99936741332947
  H          -0.56896979679079     -3.14438447221219     -1.91737266264509
  H          -0.88710288346607     -1.50774176456455     -2.49695178628637
  H           0.78466844544243     -2.05764382080617     -2.28578221063507
  H           1.48595449705164      2.04464419622351     -0.60825586796770
  H           4.43533272795347     -1.71213860135575      0.60639561500612
  H          -2.07809052926260      2.55232104032921     -0.15356103153114
  H          -2.66217398234278     -1.46877859093130      1.16174480114947
  H          -4.48367297125353      2.72489800583509     -0.70308040701554
  H          -5.06008368123518     -1.29682015048810      0.63163555889009
