52
Coordinates from ORCA-job 11439770 E -1191.785835847561
  O           2.12848347868665      2.84731618943383      0.27483749775311
  O           0.43916512199898      1.71304135935909     -1.73872227993169
  O           2.20032383259363     -2.49581019878146     -0.75331234322229
  O          -4.20838467567637      0.69908158977006     -1.47157644356268
  O          -5.49494647063291     -0.93632883301613      0.45276032236378
  C           1.86400247595426      1.45263538314009      0.24588580482987
  C           0.58783458179724      1.17720172124447      1.07775839622124
  C           0.14658498493209     -0.23018353661432      0.60101222531638
  C           0.93039711761977     -0.45248359686941     -0.74688935339814
  C           1.45367123335347      0.92688217197389     -1.14293792436431
  C           3.02413000405542      0.62201365944973      0.72602439950168
  C           2.12870048329157     -1.33003602893988     -0.42814172682153
  C           0.74294130593864      1.31093643302442      2.58264608576399
  C          -1.34650259172555     -0.41661826750174      0.52481736831185
  C           3.17922523028470     -0.66870529225550      0.40447725044938
  C           4.35940226085451     -1.50336066107725      0.82541265229419
  C          -2.11936007733292      0.22479271230889     -0.44372871488863
  C          -1.99152504874040     -1.22000824844082      1.46156369808023
  C           3.25442566112738      3.28066691306028     -0.47661444637310
  C          -3.49607164695063      0.06625263318351     -0.48108772754839
  C          -3.36969873891128     -1.39262825922716      1.42544242765051
  C           5.41865405087469     -1.51425147456991     -0.24610496225319
  C          -4.13230464608722     -0.76302177363412      0.45358947913283
  C           5.71129092416135     -2.55726065844932     -1.00976790933643
  C          -5.05189399456034      1.75994580092485     -1.01829919038687
  C          -6.00396757278215     -1.68726388408720     -0.65320183218890
  H           0.60641423438683      2.63470745363682     -1.50091191101511
  H          -0.14829019654056      1.90498377326407      0.73340958425818
  H           0.51149861641580     -0.95995830988636      1.32677951859003
  H           0.32947846510344     -0.92526054922669     -1.51927178226985
  H           2.31136209323957      0.85194224897048     -1.81927845580963
  H           3.73878248381745      1.11264253721960      1.37829447882205
  H          -0.21491882820934      1.13695577028883      3.07620462380293
  H           1.45797784352407      0.58490096807070      2.97562329058748
  H           1.08436365326697      2.31181876006301      2.85098710540071
  H           4.77536341792903     -1.09643245574951      1.75093140234412
  H           4.02650598157777     -2.52367770009153      1.01777465776126
  H          -1.65508624814796      0.86162188104629     -1.18469056515820
  H          -1.41054513561387     -1.72821525025049      2.22135498338048
  H           4.17920822900959      2.80330393612141     -0.14046135082891
  H           3.13159746143853      3.08325883489319     -1.54654752423099
  H           3.33357403446321      4.35472496650711     -0.32021278317543
  H          -3.87357404544667     -2.02534225020069      2.14451581383990
  H           5.94206121140476     -0.57325050282017     -0.39608898494493
  H           6.47451476737752     -2.50069950656021     -1.77570591269756
  H           5.18576743874384     -3.49865748362656     -0.90283987173030
  H          -5.79479092558564      1.39863695471962     -0.30494481530638
  H          -4.45273902718207      2.54910792818559     -0.55403058760911
  H          -5.54884226994779      2.15519775373117     -1.90225306413626
  H          -5.59027335435684     -2.69996075455936     -0.64636323674776
  H          -7.08302354874795     -1.73498437699287     -0.51950681179601
  H          -5.76774563604430     -1.20309648016232     -1.60214555472357
