21
Coordinates from ORCA-job 11460 E -499.355598398777
  O           2.46000483178855     -1.11087437184907     -0.08428810147958
  O          -2.43949282552327     -1.71173128694237     -0.16960385228349
  C          -0.94659194691148      0.11402309288057     -0.02024962910974
  C           0.15880431604111     -0.72690399705139     -0.07441640217256
  C           1.44818688651389     -0.20529508202985     -0.02440538626959
  C          -0.76085043335548      1.49702272382371      0.08548443618481
  C           1.63313165321154      1.17428612344892      0.08112725456080
  C           0.52349617089464      2.01231793471753      0.13504271442117
  C          -2.30788625019863     -0.50866484335882     -0.07848108436215
  C          -3.51908131529297      0.39671845582158     -0.02118212697242
  C           3.79469847643303     -0.63587257616859     -0.03753892376779
  H           0.01314663772929     -1.79491681255589     -0.15611666577580
  H          -1.60738123111981      2.16655804491685      0.12885801763631
  H           2.62405921332492      1.60138865439332      0.12157713903764
  H           0.67372538003166      3.08120095439743      0.21685730071488
  H          -3.52613284950646      0.97665689829794      0.90439436040662
  H          -3.51135593220915      1.10732375795157     -0.85067949981587
  H          -4.41643408668321     -0.21453200731926     -0.07426065537960
  H           3.99802152961150     -0.10789689594990      0.89904002685662
  H           4.42831581432718     -1.51728169261757     -0.09882072951524
  H           4.01258396089316      0.02635492519331     -0.88089919291501
