13
Coordinates from ORCA-job 1146 E -174.434227794302
  N          -0.00207538982120     -0.00012906274061     -0.63146909071756
  C          -0.54723738796105     -1.27321886264548     -0.19923830798719
  C          -0.82929438497218      1.11049173330846     -0.19906855754244
  C           1.37609048684255      0.16268438688770     -0.20849940208596
  H          -0.58430284166457     -1.37129755929279      0.90154355255009
  H          -1.56213210620670     -1.39128097124595     -0.58272003638791
  H           0.06228571964446     -2.08966800163758     -0.59023163152174
  H          -0.88827176312069      1.19704408707336      0.90171595975383
  H          -0.42712613684421      2.04670833205275     -0.58991344333548
  H          -1.84365692339972      0.98857535985993     -0.58273993051424
  H           1.48754808608274      0.17516748715295      0.89155991915113
  H           1.98317107898660     -0.65548643817034     -0.59975022016621
  H           1.77541356243396      1.10041850939761     -0.59862581119631
