20
Coordinates from ORCA-job 11470 E -573.409621547421
  O          -3.43785635561293     -1.14902499257784     -0.24207219750084
  O           3.56589695735706      1.11262317310508     -0.19985245827657
  O           3.51409334705907     -0.98630510318648      0.50748310371179
  C          -1.38599649289610     -0.00708386678892     -0.03236697458343
  C           1.40814835786216      0.03068264206786      0.08264753446091
  C          -0.70206057145630      1.19986008386977      0.10874643247464
  C          -0.65617340816650     -1.19711927851484     -0.10392826714264
  C           0.68431371514897      1.21964707154295      0.16084186508605
  C           0.72369392236450     -1.18066269901238     -0.03669743646519
  C          -2.88291221100307     -0.07986693911723     -0.10415525283914
  C          -3.67680108873240      1.20217314858321     -0.00080466690615
  C           2.90303068807132     -0.01633784066322      0.15631914683204
  H           2.95787990205571      1.76138284838905     -0.57610210716900
  H          -1.24391378931946      2.13191668466993      0.18429889610468
  H          -1.19869027452166     -2.12643839651597     -0.20859226177726
  H           1.18633949949125      2.16902741370716      0.30446131171306
  H           1.29639267499577     -2.09678414649737     -0.07553083071625
  H          -3.47573111524161      1.70766014953769      0.94654040958096
  H          -3.40585077373959      1.89211945213431     -0.80333223757597
  H          -4.73551798371618      0.96581359526722     -0.06836800901171
