33
Coordinates from ORCA-job 114703 E -768.677264679196
  O          -2.18326544450658     -0.99890612189407     -0.41783878170323
  O           2.37619819250445     -1.89721462304772      0.27449738251137
  O           4.08928743913085      0.22732927328186     -0.33543976760739
  C          -3.31455686268020     -0.11483608974996     -0.15380024287841
  C          -3.02740886234390      1.28375599996740     -0.63606603795490
  C          -0.92847512167011     -0.51249703232787     -0.30396441467819
  C          -0.65921671754197      0.85771741801910     -0.45277987739703
  C          -3.56281027030876     -0.11760858118411      1.35652828481602
  C          -4.47804706702149     -0.74009457056391     -0.91040293505371
  C          -1.77893568329384      1.73705178560470     -0.73736256956595
  C           0.65881253200680      1.28007160346967     -0.36376149270259
  C           0.10583611455617     -1.41139599446483     -0.09439306897889
  C           1.72732595249281      0.40000648327161     -0.16329266305431
  C           1.42202836044209     -0.97158039128687     -0.02656790563989
  C           3.11955702841390      0.92057925226214     -0.09991845878682
  C           3.31222627927169      2.38289924428297      0.26409485116791
  C           2.98842429607606     -2.54163609636875     -0.84571272852015
  H          -3.88131686911535      1.91375442001260     -0.85122788260455
  H          -2.68874342483964      0.26552136668857      1.88420514028778
  H          -4.41509322103869      0.51876094830382      1.60075533274956
  H          -3.76965987799585     -1.13171415978083      1.70240678100000
  H          -4.63257791839935     -1.76697386974379     -0.57824071583745
  H          -5.39212730501292     -0.17339644707496     -0.72723484458705
  H          -4.27703736278210     -0.74446069127545     -1.98165328107568
  H          -1.57410051078716      2.75516308871222     -1.04642094253392
  H           0.85747189942610      2.33724346210697     -0.47897273258573
  H          -0.11171912001832     -2.46212491580502      0.03855328271767
  H           2.72716557737943      2.66320319168896      1.14119638844589
  H           4.37022862401584      2.55136995650558      0.44995111102010
  H           2.99902809856159      3.02682749865449     -0.56183355176533
  H           3.68550137142722     -3.26757562743088     -0.43291472253970
  H           2.23453992408205     -3.05791793334917     -1.44842284744931
  H           3.53166994956917     -1.81648484748449     -1.45119008921610
