31
Coordinates from ORCA-job 114829 E -879.632777562938
  O           0.31573705964534     -0.65282960745148     -0.08853195406739
  O           1.81383786118853      3.14214135619982      0.31112266872914
  O           4.57540255704272     -2.56747022023875     -0.36085710660210
  O          -5.98174583727653     -0.71272087880476     -0.33490032654714
  C          -0.49381632804409      0.38235405657348      0.50961708366064
  C          -0.09799934446671      1.74546107283898     -0.04706239206289
  C          -1.93715125474619      0.04344489474019      0.27457687653376
  C           1.38037945384151      2.01655862898812      0.15551836464157
  C           2.22865008517368      0.81923909399978      0.09919741996456
  C           1.65555937172973     -0.45444473357312     -0.06506804504508
  C          -2.87300002556398      0.21028227993151      1.29199943092328
  C          -2.37923414113201     -0.39239867748212     -0.97137231222245
  C           3.62358275904085      0.92438533455304      0.12375486374919
  C           2.45508544459486     -1.57976054418148     -0.22339624509168
  C           3.83454560119047     -1.43968331433959     -0.20588790101513
  C           4.42860433685693     -0.18245018948968     -0.02414208230017
  C          -4.22018451082396     -0.03793270631963      1.07862686668932
  C          -3.72239837890570     -0.65474218403298     -1.19611957706009
  C          -4.64837267257381     -0.47321349465702     -0.17126723279195
  H           5.51353859170176     -2.34897384871580     -0.31609756482845
  H          -6.14965437120395     -1.01208703674999     -1.23556075741982
  H          -0.29007195371007      0.36768509465099      1.58704055394482
  H          -0.30711173986379      1.77177511858464     -1.12201074554566
  H          -0.68004001719695      2.53790616263508      0.42199775518072
  H          -2.54545539571814      0.53890533367791      2.27134581569431
  H          -1.66471499223352     -0.54556897634239     -1.76919431825583
  H           4.05006837426715      1.91100117124568      0.24745151788053
  H           2.00417926247231     -2.55441384347320     -0.34313665872390
  H           5.50828414747401     -0.08943441679596     -0.00960195208604
  H          -4.94666191695178      0.09061869445334      1.86946700423618
  H          -4.05260402580866     -1.00308962042462     -2.16870705016223
