33
Coordinates from ORCA-job 114917 E -918.698699289431
  O           2.40279475169197      2.12142568829628     -0.01245577707819
  O           0.21185747624062     -2.76496020393260     -0.02516493248164
  O           2.87772666617547     -2.43563128128079      0.03435043042019
  C          -0.27749015185489     -0.41781756900547     -0.00447315378752
  C           0.32188395615376      0.84734443967028     -0.00933973777259
  C          -1.71005062629100     -0.51036693791912     -0.00134422309614
  C           1.75950273318155      0.93791636073786     -0.00741741641691
  C           2.66035513351574     -0.08758496358813      0.00435999591002
  C          -2.48465391627245      0.69927489271366     -0.00664094832655
  C           0.60877321098871     -1.62288802581754     -0.00590236138874
  C          -0.45151339290727      2.02129033010789     -0.01554036166056
  C           3.97309010369712      0.49723772412683      0.00738021599048
  C           2.17880187016658     -1.44843251339513      0.01411535468991
  C          -1.81505976656412      1.94215449304327     -0.01485259863585
  C          -3.91050310375565      0.64940377786663     -0.00329141020903
  C          -2.41174515749678     -1.74233129315156      0.00911006044221
  C           3.75021403875585      1.83413643991656     -0.00365070848941
  C          -4.52980736965938     -0.57506500882502      0.00613685642143
  C          -3.78090510511525     -1.76365482393331      0.01296084395166
  C           5.27968407461223     -0.21861779650530      0.01928024871147
  C          -4.73104559752517      1.91037048446095     -0.00932872137667
  H           0.04717669093385      2.98005081654220     -0.02079112263164
  H          -2.39324215545063      2.85478229453293     -0.02006614039184
  H          -1.85624163060198     -2.66227722766331      0.01313581059201
  H           4.40496159713199      2.68743932236182     -0.00711807688169
  H          -5.61176171285611     -0.62588068031098      0.00890647964093
  H          -4.29653220161217     -2.71570795879759      0.02142581755233
  H           5.36187066491951     -0.85832350677153      0.89945085610421
  H           5.37053798859280     -0.87173691550079     -0.85014583875421
  H           6.11219058310992      0.48504911948293      0.01790445264049
  H          -4.52742133411505      2.53112377727486      0.86678860327857
  H          -4.53060932484840      2.52067672483287     -0.89347712095310
  H          -5.79321499294137      1.66972502043034     -0.00593837601362
