60
Coordinates from ORCA-job 11503965 E -1756.517144131795
  O          -0.96172900499324      1.13271919224342     -0.97408526501515
  O          -2.21879713485474      0.48940113890794      0.81220827775795
  O          -1.63504082306604      5.11452050772047     -0.24638909693841
  O          -0.60447107346484      4.28500534879801     -2.75865300238134
  O          -3.24958684667111      3.14319252506328      1.05423146540708
  O           0.29687751885039      0.18855694082486     -3.32040376728879
  O           0.23760235020669     -0.70777606684881      2.05487941207484
  O          -2.87970912712598     -4.93992787484871      0.01340591826101
  O           1.05204845147858     -2.79584369094273      1.81578841325082
  O           3.36575552095698     -0.30422724034532      2.71986158226956
  O           0.92387130969057     -1.60998812399948     -1.14970048080836
  O           5.31173905033213      0.84259303445618      1.15010823300137
  C          -1.86535154883300      3.80401619505323     -0.74815304865529
  C          -0.67758169173857      3.43648864073848     -1.62468357444455
  C          -2.05586573709163      2.79291866424912      0.36819070475345
  C          -0.80418559300840      1.99101454178988     -2.10617259910416
  C          -2.12995604013889      1.39996972730601     -0.24286139653219
  C           0.42749187183937      1.51444705957035     -2.85425785717597
  C          -2.39709120101275     -0.85063963536069      0.52585022888825
  C          -1.85422787422850     -1.75348097296753      1.44420708525467
  C          -3.09064316893789     -1.31394034176374     -0.57998537287089
  C          -1.00578417225088     -1.25088509438481      2.57657049282131
  C          -2.03988931571924     -3.11491764648282      1.25017216000460
  C          -3.26273412748497     -2.68034666318206     -0.76945754351498
  C          -2.74743848819367     -3.58440511763079      0.14983400014161
  C           1.12493740746585     -1.61145457352643      1.61383128574490
  C           2.18497511647923     -0.97246779435136      0.77515201766641
  C           3.26674806766006     -0.32797808339962      1.35760676645282
  C           2.06583132903133     -1.05263421989708     -0.61037553953737
  C           4.25595341385045      0.23008738041619      0.53687966094792
  C           3.03946475715237     -0.49693127845875     -1.42241846931207
  C           4.13041408596427      0.14137208387928     -0.84365262042920
  C           3.13839135927984      0.97415846234516      3.32326292811205
  C           1.01535249229064     -3.00324573600145     -1.47987391912435
  H          -2.37262822520760      5.34102872322716      0.33281239467597
  H          -0.67547985932557      5.19331644128104     -2.43963208792080
  H          -3.37831082359954      2.51113073960562      1.77101884077644
  H           0.29501459822706     -0.40502682613596     -2.55089117596258
  H          -3.39375925493360     -5.13645679790371     -0.77744412681883
  H           5.92453741482251      1.16664249592925      0.48072400018404
  H          -2.76859071958078      3.80001530155666     -1.37366371507750
  H           0.23561151882263      3.52364931224362     -1.02058046764798
  H          -1.19241378189052      2.81749157952299      1.04239253741715
  H          -1.68096440158903      1.90074710693084     -2.76165170110924
  H          -3.01132278825341      1.33408674703311     -0.89771026070260
  H           1.29693109635752      1.62028078233821     -2.19283697452018
  H           0.57705716471965      2.15657083329008     -3.72164746494515
  H          -3.49358145873080     -0.62830938713773     -1.31031137451326
  H          -0.78528553568187     -2.04792173575898      3.28302140851073
  H          -1.46337613279538     -0.41066106948316      3.09089799857852
  H          -1.59603314621643     -3.82416795980776      1.93465542450325
  H          -3.79924117511757     -3.03521628431155     -1.64236659927557
  H           2.92468995801074     -0.53884206680626     -2.49687472369750
  H           4.89500770051419      0.57944486261661     -1.47574675627484
  H           3.24615111283555      0.82520125217758      4.39545880009958
  H           3.87044435651113      1.70583161963157      2.97828999036682
  H           2.12592544955812      1.32009368533525      3.09911613779299
  H           1.25756544096400     -3.58569331897702     -0.59048971813105
  H           0.03379004509929     -3.28955172372523     -1.85104132722728
  H           1.76895631276530     -3.16426260164202     -2.25513913875866
