83
Coordinates from ORCA-job 11504083 E -1548.008933102218
  O           5.12626080290158      1.72838215045356      1.35857739707646
  O           5.28212345158201      2.94863007094398     -1.06059777879491
  O           6.62256374047051     -0.60654652881523      2.06868638575926
  O          -4.01175037608750     -3.13156537870787     -0.83596133786464
  O          -3.53757540971494     -1.51115397219461     -2.25503491941509
  C           0.33860351310385     -0.88669945739539     -0.01761916786297
  C           1.11946088863689      0.38332463648949     -0.46349185459579
  C           2.63532647172213      0.20538407627568     -0.83535282607853
  C          -1.02866447966433     -0.39470892132822      0.63895409377038
  C           3.29561792270880     -0.51435432189172      0.37377988713155
  C           1.16839844052940     -1.68584063904218      1.00693454280211
  C           2.63283509221117     -1.87162833695679      0.61633355395860
  C           4.84907948606074     -0.53652074994307      0.40540739196377
  C          -1.80443090640965      0.42343698959971     -0.39478093172251
  C          -3.32099924637450      0.51453717516222     -0.34692454044619
  C           3.24878847074211      1.61851675055251     -0.93360134005781
  C           0.32334844908550      1.16319091610668     -1.51687774469318
  C          -1.84165809689074     -1.61617415774082      1.13729722539922
  C          -3.98040235850997     -0.82859102864375      0.03415898111685
  C           0.04435830258750     -1.80834535163114     -1.21819697316034
  C          -3.33087186387105     -1.34305684511861      1.32676513250207
  C           5.38886618444061      0.90183445748024      0.21361482274327
  C           4.77310686262134      1.62246770745501     -0.98044901463581
  C           2.86203209681936     -0.52158921076239     -2.17852930554357
  C          -1.15765369719543      1.12303029321291     -1.32148090173894
  C          -0.80092207004588      0.51742581794109      1.87146136518382
  C          -3.79340222534761      1.66869637180940      0.55772450287290
  C          -5.51550599420608     -0.66752206646233      0.18106819575641
  C          -5.31907613099331      1.83838405825530      0.64084821512250
  C           5.27367052052624     -1.02155488012879      1.80712556272941
  C           5.51407516046519     -1.46313729180884     -0.62389386151301
  C          -5.92517099331142      0.49553683945429      1.07961640216869
  C          -3.79282611953909     -1.82019087370918     -1.12634992335740
  C          -5.89710943563088      2.28806284233620     -0.70808882553100
  C          -5.64540950251562      2.90446165784436      1.69114442344143
  H           5.78576333630617      1.49141180970672      2.02157569692380
  H           5.26273084642300      3.29388465496256     -0.15750643780802
  H           6.94768352551806     -1.08060042418981      2.83976542729744
  H          -4.19761123211583     -3.23952335751421      0.10555088334732
  H           1.16515889936406      1.01903713450726      0.42212229263653
  H           3.03031032273496      0.11246341476851      1.23356396598168
  H           1.16217607922576     -1.17988364770059      1.97317452369279
  H           0.70466638915406     -2.66206701815843      1.16575155342589
  H           2.71971937929496     -2.51063040384044     -0.26398074792661
  H           3.13307835164693     -2.40899140821275      1.42406536511960
  H          -3.64228007841345      0.74358518679047     -1.36206541875618
  H           2.88645943569424      2.13799284714381     -1.82182787772202
  H           2.93735915993596      2.20752125901123     -0.06624398347537
  H           0.65230537889651      2.20607977013958     -1.53074532334403
  H           0.53282860055741      0.78840173930613     -2.52390017626215
  H          -1.74061759694497     -2.44484031919059      0.43952468996788
  H          -1.41462008598752     -1.95954784662415      2.08152279382440
  H          -0.42459037806683     -2.73853653390301     -0.90052572281981
  H          -0.61611038853011     -1.34431789434911     -1.94643215980156
  H           0.96063986943350     -2.08778332889801     -1.72708750848180
  H          -3.82946466926969     -2.25007656937064      1.69061158940144
  H          -3.49302943702069     -0.60847732799334      2.11554797357285
  H           6.46878525264282      0.85364106048456      0.05808047473079
  H           5.11991309309664      1.13004686735348     -1.88891825812597
  H           2.89767172863016     -1.60318320009183     -2.07791979943190
  H           2.07652620992414     -0.28833630035408     -2.89410883946008
  H           3.79789003330040     -0.21743074201707     -2.64112091534326
  H          -1.74042487596154      1.69495606000979     -2.03858465946613
  H          -0.13104381805519      0.06114203342117      2.59954693813371
  H          -0.40237976355759      1.49038376593342      1.59434491014439
  H          -1.74435101104660      0.69794946350777      2.38350566617537
  H          -3.41193478991185      1.53845636648651      1.57172007206476
  H          -3.33944300581231      2.58981153011418      0.18423295851410
  H          -5.94514776272477     -0.52731040191541     -0.81312830723936
  H          -5.94112884288741     -1.59788953084522      0.56832276351834
  H           5.20823065137785     -2.11098862187130      1.85682586383647
  H           4.60514780621674     -0.60123793162522      2.56443231846908
  H           6.57301871544373     -1.56942410129230     -0.38263854435322
  H           5.06360648175934     -2.45627655069096     -0.60549454867408
  H           5.44338339247314     -1.08736303328880     -1.64088918176060
  H          -7.01656549944614      0.56885186506212      1.09364118027661
  H          -5.61907106488141      0.29330962307168      2.11052138814742
  H          -6.98084650603003      2.40943494177131     -0.63972413121599
  H          -5.47103265559745      3.25008800175397     -1.00149774052043
  H          -5.69308063383056      1.58149471025228     -1.51184432299214
  H          -5.25570545203221      2.62166101817591      2.67208963136731
  H          -5.20556689996802      3.86712090950586      1.42010652426933
  H          -6.72524544186531      3.04404666160532      1.78536532565440
