23
Coordinates from ORCA-job 11529 E -425.586994531552
  O          -0.38940284095297      0.43479842466099     -0.00712400959439
  O          -1.76105124683219     -1.34848136718355      0.00614819771485
  C           2.00192800227778      0.40473591644378     -0.00971321216626
  C           3.27428934920522     -0.44132991744555     -0.00636279699046
  C           0.75191976044730     -0.44834440751406     -0.00351022203368
  C           4.54391555977044      0.40587713759194     -0.01111495669269
  C          -2.70389812276906      0.87953179539089     -0.00731579879279
  C          -1.60144962340645     -0.15405399890488     -0.00174205491129
  C          -4.09707390670090      0.26749418359068      0.00336055190177
  H           1.99094686865261      1.06266784331168      0.86440205559212
  H           1.98903009155044      1.05287428783979     -0.89108231163800
  H           3.27374949672261     -1.09472702820457      0.87213117505573
  H           3.27286222523990     -1.10308588111234     -0.87857494075277
  H           0.70121638278385     -1.08651496124174      0.88106403580242
  H           0.69903841303655     -1.09639266408011     -0.88075982147553
  H           4.58688089233028      1.05382540976474      0.86769282339965
  H           5.43876855470113     -0.21898871631289     -0.00889570089759
  H           4.58568852385100      1.04576448915312     -0.89586791394703
  H          -2.54668238379271      1.53178656641783      0.85629843241014
  H          -2.55290885007190      1.51498148270843     -0.88453057922159
  H          -4.24603687088407     -0.35087064021805      0.88861682489687
  H          -4.85594304921825      1.05118072574279     -0.00194590548575
  H          -4.25179822594060     -0.36849168039893     -0.86829087217373
