23
Coordinates from ORCA-job 11542 E -276.324624567026
  C           0.92752748303810      0.04037180121611     -0.02475251536997
  C          -0.52069592450583      0.56951570081981      0.04699012352601
  C          -1.64348547448625     -0.46619214738534      0.00938918731917
  C           1.22987112033984     -0.88338419412825      1.16263500574918
  C           1.16684006170859     -0.71737210862267     -1.33752648235205
  C           1.87525292066162      1.24633216369507      0.03101214174398
  C          -3.02513553860286      0.18076897678039      0.08344108209008
  H          -0.62218004387954      1.16007426100445      0.96501156517040
  H          -0.66747540764986      1.27318635022531     -0.78072782417439
  H          -1.57403727477699     -1.05940323420773     -0.90628564875213
  H          -1.53159370290710     -1.16817893241951      0.83996844874603
  H           1.03976025064145     -0.37617879280601      2.11196007291514
  H           0.62090392549599     -1.78826583525343      1.13640930181591
  H           2.27806656586370     -1.19132516267703      1.15226751091672
  H           0.55597547011329     -1.61903598711419     -1.40210887307143
  H           0.93290505727921     -0.08888413736162     -2.20060587736345
  H           2.21296661250205     -1.02156157241786     -1.41970341002269
  H           1.73856175595715      1.80974624880174      0.95730579437312
  H           2.91890973605582      0.92670892453751     -0.01691187955829
  H           1.69308912668806      1.92658919523629     -0.80456034103988
  H          -3.14055348212800      0.75633747173238      1.00542548458411
  H          -3.18391468179875      0.86534807658669     -0.75367400025233
  H          -3.81923255560969     -0.56811106624213      0.05670913300675
