13
Coordinates from ORCA-job 11559 E -344.552548000382
  O          -0.03622130420462     -0.88750238401805      0.12013607406404
  O           2.21101080722640     -0.71945014703206      0.17632821361797
  C           0.81135911015294      1.29501336823803     -0.05665904002114
  C          -1.09509978593925      0.01586687714638      0.00117949557730
  C          -0.68356417821155      1.27588297677451     -0.10356808668336
  C           1.15178165476345     -0.18068718706590      0.09208236007718
  C          -2.43829935328554     -0.60385622022912      0.01571894576434
  H           1.28851513542543      1.68600530483114     -0.95937620932427
  H           1.23093528506408      1.84812609808351      0.78809737205645
  H          -1.32560860643025      2.13533629664724     -0.20490390386618
  H          -2.59802285585748     -1.15258469891321      0.94692008534595
  H          -3.20695353572501      0.16133391278476     -0.08109593636224
  H          -2.54105337297860     -1.31703619724721     -0.80560437024603
