16
Coordinates from ORCA-job 11579 E -421.005201131493
  O           2.10462919130580      1.27738972879899     -0.19790642002450
  O          -2.97228628035694      0.84562508906173      0.04281210703222
  O          -2.19628398405747     -1.22810143628696      0.06782958516962
  C           0.52892154465481     -0.50389861527975      0.01496525907732
  C          -0.56588576248701      0.54729051854037     -0.00440359616314
  C           1.92241211008929      0.08731632641113     -0.07122712084073
  C           3.06840930877591     -0.89319339914837      0.01345150739259
  C          -1.95507937810976     -0.05527871060924      0.03924699609427
  H          -2.62826268057180      1.74806043763331      0.01512377992506
  H           0.45949096689958     -1.12077033055632      0.91534894995635
  H           0.39875660150902     -1.20764017690465     -0.81250881298193
  H          -0.44972106385998      1.23396422792462      0.83914735663842
  H          -0.47736751520565      1.16856527276035     -0.90018572304545
  H           3.07681090222448     -1.36569379693966      0.99948493108593
  H           2.94547965111575     -1.69339834466523     -0.72010543476931
  H           4.01242238807397     -0.37864679074032     -0.15028236454673
