23
Coordinates from ORCA-job 11571818 E -479.713406630124
  O          -2.70402347984662      0.46485705187321     -0.55137497862806
  O          -1.66858174914088     -0.86492236012282      0.93597562591468
  N           2.02381344079709      1.13527190077685      0.05757694884796
  C           0.89028828390543      0.22247678000177      0.25283830992460
  C           1.27565778673275     -1.07750838391440     -0.47850782475892
  C           2.81357906496467     -1.13541301428093     -0.34976797158162
  C           3.21196723938591      0.27751262475688      0.16482051771004
  C          -0.40933982771406      0.86102315188501     -0.19884295712491
  C          -1.62833084210741      0.03976985972529      0.14124699454463
  C          -3.93629159491433     -0.21680006129316     -0.26965858317602
  H           1.97523707576228      1.51491094080545     -0.88397517337543
  H           0.81982247937794      0.01275297575546      1.32443378143309
  H           0.77605899646865     -1.95037800131034     -0.06114866075688
  H           0.98051017813598     -0.99884469528958     -1.52945412081794
  H           3.12924673039348     -1.90913273006948      0.35114002777293
  H           3.28316667999594     -1.35974835235423     -1.30810120881678
  H           4.04509098980650      0.71675033233452     -0.38333322300083
  H           3.50493755514564      0.22419771344286      1.21622481627005
  H          -0.52886600742658      1.83687658303976      0.28211624397431
  H          -0.40339453865945      1.04695252904921     -1.27667848107223
  H          -4.20238476408559     -0.10500477344311      0.78103053110730
  H          -4.68195727275674      0.25250164914742     -0.90544379263787
  H          -3.84648242422061     -1.27755672051564     -0.50170082175209
