19
Coordinates from ORCA-job 11574 E -273.901782178981
  C           1.16895863488027      1.20378730801947      0.34947130164333
  C           1.84353323315053      0.02127621328393     -0.34198263402395
  C          -0.30604303725042      1.29094531747347     -0.04366681148171
  C           1.17197114072309     -1.29122561054222      0.06494059658039
  C          -1.00658543578429     -0.04545307953295     -0.01569697257081
  C          -0.32795360953562     -1.19112313372177      0.04702542716832
  C          -2.50537857913945     -0.00179692716937     -0.07004947650507
  H           1.24597392993102      1.07485508377369      1.43419970073625
  H           1.67889676170977      2.13876257334164      0.10551032146344
  H           1.76188331311935      0.14736602211619     -1.42673638980920
  H           2.90965368033730     -0.00941309150997     -0.10532705864372
  H          -0.83237578480180      1.98554743953453      0.61983372764174
  H          -0.40290588903993      1.71995988705457     -1.04976316998739
  H           1.49223682134898     -2.10033154788485     -0.59893722477497
  H           1.50694419263923     -1.58553264991708      1.06823690758616
  H          -0.88048579061297     -2.12583204077056      0.08439384847938
  H          -2.91386807258640      0.54133473887330      0.78839066571327
  H          -2.84803760979374      0.52785863693072     -0.96534196680852
  H          -2.93849889929493     -1.00249913935274     -0.08020179240693
