26
Coordinates from ORCA-job 11594 E -315.626060629746
  C          -0.92019873635510     -0.16270369680569      0.84352689064534
  C          -2.35513919126918     -0.06249200786645      0.29866292994822
  C           0.20201260264516      0.03021851998585     -0.17619205438737
  C           1.59127829931297     -0.08550292149146      0.44738325611056
  C           2.72755156915877      0.10462888641951     -0.55484645790700
  C          -2.67070038099775      1.32594454746457     -0.26256252119756
  C          -2.66663183689991     -1.15277794765170     -0.72928470858046
  C           4.11142196939557     -0.01335794050995      0.07826506314143
  H          -0.79984796088417      0.57832779545433      1.64165450271720
  H          -0.79732184043078     -1.14228796935754      1.31887119503363
  H          -3.01879108516076     -0.22498880679906      1.15587910465320
  H           0.11038499571436     -0.70994253026482     -0.97698443585560
  H           0.10861821120024      1.01049737529239     -0.65355860726456
  H           1.69095813422289      0.65415754306691      1.25033000750978
  H           1.69301881800710     -1.06632877133629      0.92634405313463
  H           2.62706691518545     -0.63477226536332     -1.35655374816001
  H           2.62534319490526      1.08505900976981     -1.03219807346021
  H          -2.44973510201361      2.10851720543515      0.46728558794993
  H          -2.08870620474650      1.53466329518532     -1.16298801009662
  H          -3.72652749788108      1.40615086314577     -0.53046719363261
  H          -2.44284012167869     -2.14651797658268     -0.33393170056563
  H          -3.72235955403269     -1.13325468701719     -1.00867762833912
  H          -2.08462522987000     -1.01791305110578     -1.64368281644637
  H           4.24998410189711      0.73604232525629      0.86179210158069
  H           4.25183345291772     -0.99649158546495      0.53483907083333
  H           4.90362947765761      0.12676979114099     -0.65994680736482
