18
Coordinates from ORCA-job 11597 E -235.789387297775
  C           0.56666781845912      0.28353490862895     -0.14822792423148
  C           1.86853363683935     -0.47441911739878      0.10074840669041
  C          -0.67574656824935     -0.61258465566503     -0.07822549357850
  C           3.10226875489632      0.42190787074397      0.03576804498550
  C          -1.94387123349857      0.12785549657910     -0.36979742007732
  C          -2.95925242487159      0.27245116193578      0.47242212295969
  H           0.46546926686762      1.09119339131696      0.58396753303352
  H           0.60993457119203      0.76635228565277     -1.13097188202940
  H           1.81971134076615     -0.96055003163501      1.08085494703437
  H           1.96124978523533     -1.28110286010072     -0.63418691743930
  H          -0.55799239953609     -1.42766903264246     -0.80284455436600
  H          -0.73972455133561     -1.07789871274394      0.90985501259982
  H           3.04893547971469      1.21809015325221      0.78250295713807
  H           4.01795107326567     -0.14419754949951      0.21752559140729
  H           3.19248525689205      0.89561599268145     -0.94504738196265
  H          -2.00646723286198      0.58916376875132     -1.35333676576916
  H          -3.84721295528870      0.83085736152926      0.20396956958303
  H          -2.93875361848643     -0.16719343138633      1.46394715402209
