36
Coordinates from ORCA-job 11602329 E -1181.493743531249
  O          -0.04561082078373      1.41063054230423     -0.18137259534109
  O          -2.27037579197726     -1.97131296573212      0.28560148303784
  O           4.77756326859073     -1.16168391012547      0.19586961747375
  O           4.77054416851775      1.60774514844781     -0.21095610863854
  O          -2.46256695644881      2.76109911120883     -0.37571212911687
  O          -0.38858747365452     -3.15906467027904      0.45129326932489
  O          -6.44529322661075      0.09937192225416     -0.01472916407616
  C          -0.19451924113609     -0.81809122662031      0.13212692202530
  C          -0.88338724700706      0.35797243313710     -0.03550052431599
  C           1.20194160961989     -0.48689955966199      0.09010693680827
  C           1.23386319053996      0.89656099504143     -0.10511836390896
  C          -2.30293036539459      0.42861283239694     -0.04930265927502
  C          -2.95795572175104     -0.81089794082133      0.12214041870013
  C           2.40077840491313     -1.19024312075783      0.18301621392687
  C          -0.87099779329907     -2.06992143659395      0.30194877905341
  C           2.39938120709740      1.62794909557620     -0.19542548538805
  C          -3.10042330158020      1.57564161056012     -0.21195931463443
  C           3.58824831927019     -0.48336919165457      0.08321854741203
  C           3.59068748625051      0.91951406657594     -0.09207014318905
  C          -4.33901966070769     -0.91562821023247      0.13300833347519
  C          -4.48227295444228      1.47989875743643     -0.20238647188989
  C          -5.09394149954776      0.23528000315171     -0.03000090849252
  C           5.48873972452493     -1.32269551174191     -1.03458488358530
  C           5.53924818325999      1.70508591477552      0.99317479912914
  H          -3.11024821101705      3.46779667268835     -0.47754166399977
  H          -6.86706497018623      0.95753540508065     -0.13604005688046
  H           2.41887043928439     -2.26122199169753      0.32548239990134
  H           2.40984693269109      2.69904967573736     -0.33683552707696
  H          -4.81254274547965     -1.87649413636650      0.26591856645595
  H          -5.08604688826799      2.37228828969543     -0.32872495434515
  H           6.40168580826655     -1.86321027119464     -0.79232033571147
  H           4.89492756468111     -1.90802577840883     -1.74258054196975
  H           5.73673194292811     -0.35500400109614     -1.47491109687517
  H           5.80643791699518      0.71717000380048      1.37006191101588
  H           6.43878746554714      2.26044338866451      0.73527580113658
  H           4.97819123631370      2.25227005445142      1.75632492983400
