24
Coordinates from ORCA-job 11600642 E -725.059795686378
  O          -1.94200405751203      1.38278546460326      1.03390473751753
  O           3.19311633353989     -2.01348545242593      0.23432138771789
  O           4.35905049409030      0.40088442754941      0.39943033519611
  O          -3.76813573140304     -1.52515800768550     -0.10629921786326
  O          -4.34742492879719      0.58805685240977      0.22776351540239
  C          -1.16677010874489     -0.04683285494084     -0.77763620800264
  C           0.30398075777330      0.10909537270689     -0.50000058284605
  C          -2.02386982117573      0.08617234360555      0.50219796021185
  C           1.09483783234751     -1.01849679904385     -0.27539597124590
  C           0.88905809317611      1.36906213470246     -0.42095581057489
  C           2.44228326771644     -0.89723278394117      0.02460704751028
  C           2.24106567617429      1.49991807514191     -0.12091589703899
  C           3.01661483017759      0.37480870377954      0.10182025980654
  C          -3.48361948760113     -0.24571276448474      0.20525919343825
  H          -2.82491770055267      1.77428448767866      0.93388757928745
  H           4.09978980595560     -1.73720380634794      0.42406247650893
  H           4.67267136961183      1.31040632105490      0.43712775597788
  H          -2.97521271165094     -2.07549839404525     -0.05146877854400
  H          -1.51115629513131      0.71420470687807     -1.48090542516900
  H          -1.34724556136831     -1.02069159828287     -1.24140123377733
  H          -1.65115085849259     -0.62647117610352      1.25037545158415
  H           0.67646605998901     -2.01599518531169     -0.33885691158574
  H           0.28533586406368      2.25238250244217     -0.57398541633537
  H           2.69307587781429      2.48387743006071     -0.05907124717608
