56
Coordinates from ORCA-job 11604108 E -1455.568074371015
  O           1.07801764299162     -1.76606434572241      0.07436932118234
  O          -0.96810660652166      1.87793125806912     -0.01620475199565
  O           5.76114008626632     -1.71790906961949     -1.97519324988202
  O          -5.50429482643947      1.79223003615287     -2.18674773189926
  O           5.95506181966903      1.52779010622743      1.34237559546996
  O          -5.88326499435019     -1.27733374130144      1.39071606560208
  O           7.12002114838663      0.03455099701566     -0.50794656959433
  O          -7.02247699667793      0.09817538858001     -0.55049526469596
  C           0.74012372029588      0.39518282843399     -0.77399979921125
  C          -0.61791936891704     -0.31628098277967     -0.76985166579218
  C           1.53968411180995     -0.42923105068876      0.25539495839809
  C          -1.43294488373739      0.55118195404486      0.21099733759146
  C          -0.30288202825390     -1.74010792229820     -0.30115543289364
  C           0.41786940314315      1.83770271412247     -0.37216852034802
  C           3.03084772894328     -0.35224910434010      0.09471233408101
  C          -2.92162713000278      0.47014307141340      0.02909325999293
  C           3.75741827528879      0.54810241020978      0.86603814941478
  C          -3.67072509302480     -0.36668110499294      0.85608167718285
  C           3.67324122327489     -1.12249104256328     -0.86872111809232
  C          -3.55037967806230      1.16151242426893     -0.99600899900268
  C           5.04537860506710     -0.99979098575925     -1.07196966395316
  C          -4.91938370813127      1.03608438870913     -1.20742943697168
  C           5.12536527600632      0.68031530897185      0.65374017041227
  C          -5.03463007599757     -0.50165349007643      0.64356954587463
  C           5.77987384403177     -0.08541236219350     -0.31021361983977
  C          -5.67436573731996      0.20366826051705     -0.38172189140962
  C           5.06929604708112     -2.66771406469194     -2.76546198602103
  C          -6.12603308645360      1.06862330287490     -3.25007098277008
  C           5.38795318269222      2.34866340439437      2.34885415961200
  C          -5.34385257898838     -1.99284703801071      2.48947220510469
  H           7.44085932956824      0.70165532948599      0.11437136059101
  H          -7.35016221610036     -0.50366980975385      0.13230329374859
  H           1.24118430139862      0.33875717753173     -1.73947562713175
  H          -1.10324624433866     -0.30060472470273     -1.74479049255457
  H           1.27692742235515     -0.08262227897938      1.26556676244032
  H          -1.18782517765453      0.24483863731073      1.23884825469430
  H          -0.44538632247178     -2.48176629436548     -1.08799583728916
  H          -0.92603425449043     -2.02731420736169      0.55340697896710
  H           0.56943865774633      2.54420915213537     -1.18883676382529
  H           1.02966738707172      2.16258313950315      0.47683821025329
  H           3.25798440071392      1.13036533136820      1.62653230267428
  H          -3.18517623057948     -0.89481996029605      1.66404020477206
  H           3.09239119948889     -1.83240972261079     -1.43591296997180
  H          -2.99002085848831      1.83046371874085     -1.63355279677327
  H           4.59661605722133     -3.43524592174182     -2.14545745415582
  H           4.30703690983743     -2.18989637649814     -3.38869773779810
  H           5.82016938012848     -3.12845882784945     -3.40309597545751
  H          -6.96583126963539      0.47292819647181     -2.89154098384342
  H          -6.48054535259571      1.81645845819087     -3.95670009917000
  H          -5.39738441939714      0.41827867857346     -3.74444863696125
  H           6.20645219612065      2.93614037722165      2.75802774566321
  H           4.63155703027426      3.01903587303781      1.93110286230825
  H           4.93939781380915      1.74591306105588      3.14347793292261
  H          -6.17632494504538     -2.52538585883662      2.94299990543230
  H          -4.58856552445683     -2.71118028895353      2.15865781653578
  H          -4.90184359254998     -1.31286440764565      3.22288764838243
