39
Coordinates from ORCA-job 11637048 E -585.879492417884
  C          -2.65438952542076      1.81415876676867      0.91492962610173
  C          -3.67557439373850      0.76290151826376      0.39933397401946
  C          -1.36298607144157      1.78233458311898      0.14539976984203
  C          -3.26056347721946     -0.63887562782035      0.72745929074462
  C          -2.59566271207602     -1.49697298484223     -0.04849249208326
  C          -1.37064065385609      2.53684823535746     -1.15154982202174
  C          -0.32408322284409      1.05746805983744      0.59602708464542
  C          -2.18012892653101     -2.84641808578336      0.46710333075799
  C          -2.17169028362718     -1.21459937217458     -1.46125977191527
  C           0.93963861242938      0.82811821044580     -0.06017244275076
  C           1.89728652816970      0.02572066230966      0.44435415795060
  C           3.18413899563136     -0.27387688855185     -0.16407349225099
  C           3.49753297057052      0.36894164770493     -1.48769254530967
  C           4.02396107746326     -1.10523904269367      0.48103621437773
  C           5.38415211513955     -1.56372206278744      0.06924254921893
  H          -3.11009626758592      2.80663316040955      0.83967302218751
  H          -2.46602157411410      1.62505142317616      1.97419954046732
  H          -4.64230982644225      0.97252855666809      0.86576818137299
  H          -3.81716151739458      0.89585776376760     -0.67452681372358
  H          -3.48262807942314     -0.95558820106657      1.74403693882886
  H          -1.46365936686472      3.61197744397464     -0.96588367504040
  H          -0.47609445902043      2.37630566551572     -1.74896036169103
  H          -2.23398353665558      2.25399804103514     -1.76168349784049
  H          -0.44867583586099      0.55287062092813      1.55018144184615
  H          -2.50281915130194     -3.00334149745831      1.49659790024950
  H          -2.59578592286916     -3.64933490051413     -0.15031149397680
  H          -1.09108570148744     -2.95418714956488      0.42780755940945
  H          -2.55862239006593     -0.27306674665061     -1.84345828733417
  H          -1.07992206280023     -1.17473365592062     -1.52363079886499
  H          -2.50042516948690     -2.01694653171171     -2.12900035040592
  H           1.11243345934386      1.31719347926199     -1.01078131681090
  H           1.70637377761244     -0.45724614233455      1.39953953063353
  H           3.46799078475507      1.45849721256836     -1.40446933075871
  H           4.47804967461806      0.08945618687633     -1.86393717513324
  H           2.75625602078172      0.08604330767584     -2.23977987119758
  H           3.67851205743515     -1.50366393854723      1.43186126477030
  H           6.12968998666062     -1.28445074486196      0.82110337064055
  H           5.41733504715223     -2.65570390847906     -0.00498756937893
  H           5.70683202036504     -1.15539206390113     -0.88660763957623
