39
Coordinates from ORCA-job 11651583 E -735.157104925883
  O          -0.49139207417594      0.79851093888688      1.65361583281655
  O          -4.33997554157717     -0.73626913651481     -0.13414184096000
  C          -0.72373016039007     -0.99657242599594     -0.02535772754843
  C          -0.40535921133211      0.50678877239359      0.23899477412895
  C           0.34084153452461     -1.85168513328751      0.67945028025915
  C           1.00360292041162      0.84738076700141     -0.26374816735696
  C           2.09028460478203     -0.02345653909884      0.37998527207547
  C           1.76569294943175     -1.52329273732202      0.23245037862580
  C          -2.11482474892198     -1.29431321282509      0.54512749077460
  C          -1.49331972788412      1.40853851041727     -0.33856844800326
  C          -0.73245388248191     -1.33321491196324     -1.52867895631353
  C          -3.18097168538160     -0.38196504503093     -0.02164652215980
  C           3.49435961262545      0.29246575479422     -0.09551201290462
  C          -2.75584203148803      0.97033640648571     -0.41472330583046
  C          -1.13530065437552      2.81346383496388     -0.70550384481225
  C           4.60463342332631     -0.32679742855664      0.71035524941679
  C           3.76146508365357      1.06225123118105     -1.14782535563520
  H           0.32771560752219      0.52607187889841      2.08030846668856
  H           0.25390758948859     -1.71372520944252      1.76152627805142
  H           0.12881673650265     -2.90776580247055      0.49329490368821
  H           1.03036830482821      0.72944137936469     -1.34729930978017
  H           1.21863673787617      1.89438064976061     -0.05246285550155
  H           2.10160557388469      0.19180169366551      1.45998931275434
  H           2.47125714442034     -2.11502870175422      0.81715568198715
  H           1.91390064653574     -1.81102832426404     -0.81093496770159
  H          -2.41143064285913     -2.32773160602277      0.36032122642137
  H          -2.10638491295625     -1.13802941694118      1.62711926312913
  H          -0.97097526735185     -2.39105074533620     -1.65600108032066
  H          -1.48199838328458     -0.75811546611949     -2.06968548097644
  H           0.22749711192261     -1.15577562939973     -2.00875319697825
  H          -3.54835552616359      1.61579519458463     -0.77634329446951
  H          -0.66334202738177      3.31848907182568      0.14132251475348
  H          -0.42247736364899      2.84398285868033     -1.53359596529686
  H          -2.02098951304036      3.37688952851427     -0.99498250399420
  H           4.59155482746441     -1.41731948685733      0.64151783602467
  H           5.57998871197507      0.01831302932779      0.36935886873101
  H           4.50298301800537     -0.07599317800147      1.77073238895827
  H           4.78362397495567      1.25482211198777     -1.44944308832684
  H           2.99021424055792      1.52768652447082     -1.74496409441433
