35
Coordinates from ORCA-job 11673075 E -732.728880720949
  O           0.18476230836730      1.30481076477378     -0.66658712896602
  O           1.89615519222963      1.25147016779458     -2.11160164336979
  C          -1.31785432318712      0.11422460273237      0.83842079782849
  C          -1.25861258284323     -1.20253385164752     -0.00220370966776
  C          -0.08955061388156      1.01448073956788      0.72326694820222
  C           1.23360956017747      0.46892159465443      1.34147785786925
  C          -2.07940004763858     -0.87691439457558     -1.25773906749240
  C          -2.59444077844849      0.80639044040324      0.37141753481833
  C          -3.22474132544536     -0.01164250156727     -0.73014740957491
  C           1.14393585697313     -0.92558454318559      1.97821353876392
  C           0.11689653766342     -1.77664957166923     -0.22962288210502
  C           0.94417190361298     -2.09343256946275      0.99187317450462
  C           2.20392165084657      0.57427416009908      0.19839836413763
  C           1.47620940606218      1.06686872248570     -1.00396296533974
  C          -3.06534810383356      1.94578523390504      0.85983621104026
  C           0.59973825679464     -2.02957235992305     -1.44317422119865
  C           3.50067676479881      0.30030652551069      0.16948301966544
  H          -1.41662592675665     -0.11968829523646      1.90010933457094
  H          -1.82086680818686     -1.94929969880602      0.57442406024663
  H          -0.33498457133926      1.97248089058299      1.18325813416486
  H           1.53470640152646      1.16015913113313      2.13239371962436
  H          -1.47184187852094     -0.29461156991674     -1.95112701428420
  H          -2.42164019636357     -1.77434469123699     -1.77339278408977
  H          -3.68997716343312      0.61043333945947     -1.49498915359968
  H          -4.01021518813184     -0.64832264658240     -0.30709033341603
  H           2.06317122786226     -1.10338896399719      2.54110604525160
  H           0.34497768240929     -0.91167576761732      2.72153007128219
  H           1.91767679119224     -2.45002569908201      0.65503601089930
  H           0.48333696537068     -2.92336074377123      1.53881340664942
  H          -3.97095406188327      2.39526933225556      0.47156473645886
  H          -2.56710204879633      2.47872566716104      1.66133308204609
  H           1.59318343783830     -2.44012618526710     -1.57183676391196
  H           0.04391050140578     -1.82374432059684     -2.34633036458423
  H           4.05760760625192      0.43212709465408     -0.74942721530578
  H           4.03352456730671     -0.05848703303176      1.04125160888150
