39
Coordinates from ORCA-job 11673107 E -735.151492295883
  O          -5.63918366739134      0.43441234716199      0.48040074702094
  O          -4.49848412392551     -1.27115252330601      1.29932383586484
  C           2.23034617205811     -1.06106597670245     -0.61892841523408
  C           1.58086845269231      0.32491892050074     -0.30682991530774
  C           3.51122405316726     -0.27748103406874      1.06619158619929
  C           2.66890260849329     -1.53617679674715      0.77960857616850
  C           3.60496574407272     -0.87257649696707     -1.29129764212850
  C           2.49802857686122      0.81353047895683      0.82564941026740
  C           4.48071530570477     -0.28554394589175     -0.14524117903158
  C           0.14154340080788      0.16429037325401      0.23493779584956
  C           1.57598930225089      1.29786514024996     -1.49290825980251
  C           2.41369860004047      1.97165805569837      1.46553255403780
  C          -0.89681492421108     -0.32509101848899     -0.79068154785630
  C          -2.21301072455377     -0.56624281607056     -0.13256086128079
  C          -3.32512847850443      0.17162032002796     -0.21739610327443
  C          -3.46336674364736      1.42280650774506     -1.04279450979923
  C          -4.50046190241691     -0.30403548337617      0.58691908296909
  H          -5.51493293703306      1.17817579798528     -0.12132772510632
  H           1.57217374355953     -1.73222163959845     -1.16838147862453
  H           4.00802079471418     -0.21950969413608      2.03294863991358
  H           1.85153311254425     -1.67904889310891      1.48451256235514
  H           3.26645190285804     -2.44874164463884      0.74576505940509
  H           3.98838971847595     -1.84084212414256     -1.61650135495379
  H           3.57060953235702     -0.23296832205923     -2.17070205306944
  H           4.85397306298550      0.71414736384510     -0.36634571592321
  H           5.34159719011102     -0.92283655388337      0.06339401857978
  H           0.14227685264715     -0.51488579499774      1.08872201367121
  H          -0.18497908934031      1.13104351579153      0.62590855146984
  H           0.99685152317413      2.19042421575192     -1.24763571119256
  H           2.58199250313240      1.62681134534925     -1.74653028857043
  H           1.13451613036370      0.84426425424997     -2.38264169934972
  H           3.10106592745258      2.22751738884496      2.26279607514371
  H           1.65871529877941      2.70972361736571      1.22148930637392
  H          -0.98239523338639      0.39092548544630     -1.60671304581968
  H          -0.55481251405713     -1.26631354730579     -1.23056587981929
  H          -2.26807446174034     -1.42984641459916      0.52278327655809
  H          -3.72033823355616      2.28707055178818     -0.42158469728071
  H          -2.53716821591845      1.66937364448279     -1.55606208183495
  H          -4.23642325962153      1.32044239559309     -1.81190592658795
