58
Coordinates from ORCA-job 11711453 E -1456.791040454589
  O           0.21149761570063      3.22587339692978      2.22427852160698
  O           3.83469335504173      4.00183733136859     -0.30846222767700
  O          -0.16240938942765     -1.93703430933056      1.38305779871128
  O           3.77430641360126     -3.44050367193072     -0.71930598125696
  O           1.60045614379653     -3.94534397749794      0.70412265950578
  O          -2.80963728078124     -0.61108344917185     -3.10209777427723
  O          -4.77293281978110      0.12040671428874      1.13746605674460
  O          -5.04030592239452     -0.51932125017440     -1.41379439642896
  C           0.50978866855243      2.15486841805370      0.09154722383073
  C           2.02796232180734      2.37884019449657      0.09260367254232
  C           0.13801521641036      0.72647934299723      0.57614141970675
  C           2.64722298136487      1.38459687642017     -0.88618714168735
  C           1.17270139211875     -0.32709823726344      0.21985863080781
  C           2.32393163703522     -0.03550893187768     -0.50602665983200
  C          -0.27444282840132      3.19636698882847      0.87793530057437
  C           2.42087138259746      3.81305529537473     -0.25219391266933
  C          -1.24101799397236      0.36112291703104      0.05581656220864
  C           0.95964063815654     -1.64655115986292      0.65101651538905
  C           3.22353144354516     -1.05341131346022     -0.83632831298337
  C          -2.34942816818831      0.40953989562888      0.89921275434319
  C          -1.42083717356588      0.00135525402560     -1.27151048834047
  C           1.84098413131604     -2.66231965614598      0.30644100511787
  C           2.97889737928801     -2.35658199626339     -0.44739673924943
  C          -2.68173422796507     -0.30440002096840     -1.77226061577561
  C          -3.60950624234591      0.10649343052137      0.40713701337879
  C          -3.79237052467451     -0.24447674076438     -0.93420630754737
  C           0.07275104693699     -2.30458450691740      2.74047908358023
  C           4.93950706252461     -3.23121055772988     -1.49876416993191
  C          -3.22859626107835     -1.94750455168784     -3.38423944898949
  C          -4.68995169613802      0.43531524940429      2.51551170371182
  H          -0.33437280886163      3.83073396173611      2.73546967171108
  H           4.19063899839930      3.85752022502001      0.57534920796702
  H           2.32416542985703     -4.48827756379756      0.36234014262061
  H          -5.65527482084575     -0.43048502883203     -0.67277357495624
  H           0.17416923252606      2.24883884882154     -0.94725302009364
  H           2.40637417852049      2.16324231279809      1.09919355256475
  H           0.07519130009796      0.76719739205166      1.66640568622568
  H           2.27578311021184      1.60953090257143     -1.89445008133616
  H           3.72830314310024      1.51923752642488     -0.92370089271028
  H          -1.33713410394623      2.93664125454326      0.85775312221317
  H          -0.16483825245108      4.18112131757865      0.41258321930678
  H           1.98116690342322      4.50973286903050      0.46671029003186
  H           2.05305653414071      4.07739673641938     -1.24708180461434
  H           4.11670549316745     -0.80270029425030     -1.39083084488568
  H          -2.21015594475643      0.66157652166240      1.94040361175191
  H          -0.57904771395002     -0.06731674611739     -1.94815054936518
  H           0.60706406134739     -1.50751303780589      3.26771111975416
  H          -0.90839681099590     -2.44277493706082      3.19178550480242
  H           0.64144063719152     -3.23311285369683      2.80899794608782
  H           5.40821538801959     -4.20584064130355     -1.61282133952261
  H           4.68640621223799     -2.82899101648981     -2.48362312540603
  H           5.63220503601554     -2.54980738284111     -0.99683919812812
  H          -4.22812617938095     -2.14201162949458     -2.99319591293292
  H          -3.23417794881432     -2.04130984250685     -4.46867979676233
  H          -2.52049159123130     -2.66559395885886     -2.95925193002986
  H          -5.70481984063720      0.37937858625091      2.90254820461747
  H          -4.05617557438248     -0.28083609224913      3.04608288800718
  H          -4.29753136908273      1.44516359607375      2.66682615796783
