50
Coordinates from ORCA-job 11717379 E -1190.562462617610
  O           1.06762653088309     -1.47792007948677      1.64822985983105
  O           1.15642374737391     -2.46606690683644     -0.93207363701939
  O           5.15408077846989      0.04475927918958     -1.16723641210424
  O          -5.81443677473086     -0.81813296153351      0.44321335274109
  O          -6.21219281616535      1.78104261212849     -0.40703820378214
  C           1.41779264797971     -0.64500221708958      0.54669357080547
  C           0.15060619060031      0.06212145781200      0.04474503584588
  C           2.37642521946915      0.41934585614241      1.01013006911517
  C           1.99593301789633     -1.48485912767133     -0.58002321017245
  C           3.56055752906321      0.68623829850595      0.46065071286275
  C           3.19737129819816     -1.24069621393475     -1.13040942482484
  C           4.05595623326078     -0.15410216970370     -0.66685629357227
  C          -1.02560672837633     -0.20662349841480      0.61987412398360
  C           0.36266671824898      1.01291738581762     -1.09989104272367
  C           4.43521870836857      1.83209476634788      0.89766983909698
  C          -2.33950100738274      0.36806886411557      0.31550199308279
  C           2.11655716259405     -2.27869735606754      2.16837320222056
  C           4.16878142804940      3.05441250904670      0.05809466809138
  C          -3.47139437117602     -0.44214322272204      0.47464706496110
  C          -2.54573343165150      1.68916172740240     -0.09033755529051
  C           1.54618896352892     -3.34331992092400     -1.98296694269501
  C          -4.75190114198470      0.01626536813889      0.21806163840390
  C          -3.82498923177986      2.16526607799762     -0.34083182769316
  C          -4.93553857787124      1.34391264751697     -0.19336968690580
  C           4.99498382751116      3.53788207434126     -0.85887217107301
  C          -6.54765108126681     -1.21052280085202     -0.71804844284843
  H          -6.19067451710362      2.71229908855730     -0.65416137346476
  H           2.00501718609531      0.99855060132677      1.84947826453457
  H           3.59933728520137     -1.83547448744445     -1.93762574655613
  H          -1.03010388490867     -0.97072039832612      1.38587168578145
  H           0.63412692030031      2.01496002768756     -0.75692166681853
  H           1.17536992335378      0.67609078528490     -1.74414718553784
  H          -0.53938625679329      1.09944890374273     -1.70329032422770
  H           4.23248387048954      2.05621458302458      1.94821506151653
  H           5.48118831328612      1.54279914225862      0.79985842316090
  H           1.71973005396620     -2.74941401571054      3.06572946435713
  H           2.41796208045078     -3.05657012051154      1.46016618473376
  H           2.99365791935361     -1.68049084745811      2.43223407765362
  H           3.20635403798844      3.53303568653966      0.22125427254133
  H          -3.36390583956625     -1.46665282553898      0.80817201491745
  H          -1.71101413742968      2.36801615422115     -0.17726863679719
  H           0.73012519128537     -4.05147005875536     -2.09688220619283
  H           1.69263000006448     -2.79084984135026     -2.91405682176591
  H           2.46637049096690     -3.87352013556592     -1.72604159705122
  H          -3.96751416010385      3.19964857746894     -0.63621379356675
  H           4.74060165435914      4.41292662055595     -1.44387338565673
  H           5.94731507826429      3.06374779019887     -1.06393208957710
  H          -7.00366009010370     -0.35067155722319     -1.21071200340188
  H          -5.89418897787018     -1.73526755371621     -1.42214450341012
  H          -7.32526498065660     -1.88837656853317     -0.37146539550888
