20
Coordinates from ORCA-job 117158 E -478.295594820971
  O           1.64219522603371     -2.15636783874225     -0.06442103178167
  N           0.73062655369354      1.81334839408773      0.19061066655425
  C           2.42046991951332      0.07332399538603      0.30371127280666
  C           2.04047596385821      1.41536425805157     -0.30321342001801
  C          -0.03365690471999     -0.48088787211717      0.00168988864478
  C          -0.30142951058761      0.90226051529278      0.09841903759602
  C           1.35545851854466     -0.97998710937508      0.04727301061499
  C          -1.09821088227933     -1.38633538299809     -0.08017412140094
  C          -1.63756166353219      1.33219329526283      0.12291175667154
  C          -2.40826702826634     -0.95354105518145     -0.06130661076366
  C          -2.66860853671038      0.41680115460013      0.04445451356325
  H           0.46753027008401      2.76686431653391     -0.00225955668215
  H           3.37224961753416     -0.28880149467738     -0.08288239377500
  H           2.51517024691225      0.17807304691469      1.39065221224060
  H           2.03799883356778      1.33214338891107     -1.40060373480427
  H           2.76534661743860      2.18200985233210     -0.02869225639882
  H          -0.85277245808310     -2.43785647880028     -0.15034632880084
  H          -1.85257707103974      2.39187117502383      0.19855260040475
  H          -3.22372334385896     -1.66123289781498     -0.12323304799100
  H          -3.69196136810258      0.77108973730998      0.06044454331950
