25
Coordinates from ORCA-job 11745794 E -726.025771377454
  O          -1.23097392662984      0.72983229396674     -0.45003715228871
  O           3.34708609729060     -0.30987225589595     -0.30082470057070
  O           0.82352498797657      2.49753829641413      1.42971312050595
  O          -3.36028940692946      1.34568426652891     -0.58278837380590
  C           1.06163015961967      0.23364418100380     -0.36694859879052
  C           1.41025640281156      1.65104231728137     -0.72766180962987
  C          -0.25806681497030     -0.18646386788909     -0.20873642241806
  C          -0.59420838904349     -1.49659031608124      0.17063181344751
  C           2.05484674136696     -0.71905262580878     -0.14141344563254
  C           1.87962696555286      2.46404314546419      0.47451499482345
  C           0.43896288023470     -2.41254036140546      0.38915403624203
  C           1.75371401880462     -2.03300051919695      0.23138433592783
  C          -1.98237007269813     -1.81337313292030      0.31521898318338
  C          -2.93428983947761     -0.88950539975017      0.08433704517065
  C          -2.59023212031252      0.45827946958714     -0.33077284533293
  H           3.94191813454488     -1.05199856018633     -0.14560715657477
  H           1.12739860946205      2.96398791750904      2.21433351322299
  H           2.21210313152223      1.65372913905868     -1.46871241200409
  H           0.54131157144613      2.13976215025929     -1.16454500195036
  H           2.13457045970266      3.47674631458095      0.13895835238127
  H           2.77848929523373      2.00771962075837      0.90248176797847
  H           0.19471973848732     -3.42552579072523      0.68302472786335
  H           2.55615132066753     -2.74242137643960      0.39747173122583
  H          -2.25417160804974     -2.81863359124402      0.61700087045168
  H          -3.98914433661299     -1.09726231486950      0.18519562657405
