29
Coordinates from ORCA-job 11744854 E -467.021076221019
  O           2.91494931219011      0.64767385574564      0.36010689285810
  C          -0.67862319049534      0.35362388932404     -0.01015669374334
  C           0.52643281502430      0.28382221043111      0.89573348672557
  C          -0.10732124146893      1.61264557303098      0.58223388014788
  C           1.74076164784017     -0.12661744138181      0.07795324813868
  C          -0.19769466962775      0.02666570781927     -1.42107107623831
  C          -2.04794017134515     -0.11563475135432      0.44595887763082
  C           1.33022927813302      0.18245272919268     -1.37446219017894
  C           2.03575193781923     -1.61117210445826      0.28311455254657
  C          -3.16066725862406      0.52839302286705     -0.38496082184895
  C          -2.17068890586241     -1.64157911462222      0.45050268534276
  H           3.17582071202153      0.48174389029599      1.27303694105179
  H           0.43672937510939     -0.10799820593951      1.90310365058825
  H           0.43380721269271      2.31203724781053     -0.04136644384839
  H          -0.67791962844394      2.07745654901068      1.37615018276466
  H          -0.46611560297955     -1.00332532855688     -1.66758365176789
  H          -0.65260109009571      0.66608995307735     -2.18083229051129
  H          -2.16635596530782      0.22456958157375      1.48118539085404
  H           1.62779213741647      1.20701105116291     -1.59667308330635
  H           1.84474834169721     -0.46329192143188     -2.08613469035687
  H           2.25512102730046     -1.82196468665845      1.33383924721037
  H           1.17896930498257     -2.22341808312563     -0.00493665771280
  H           2.89714627799832     -1.90846812993063     -0.31642024153165
  H          -4.14571940648039      0.25545189313727     -0.00040787174095
  H          -3.07938070338019      1.61707253709547     -0.37207047087622
  H          -3.11024234153426      0.20078413447399     -1.42623969671164
  H          -1.37428645821525     -2.09895032217043      1.04097201016887
  H          -3.12735486476024     -1.95085026917420      0.87677608732752
  H          -2.11733788160449     -2.05028246724451     -0.56092025298227
