16
Coordinates from ORCA-job 1175 E -637.652961984842
  O          -0.83100330770517     -2.63945692066998      0.00032607066856
  O           3.66197874246734      0.41053631685462      0.00004667035598
  O          -3.23511766907220      1.26662612261571     -0.00058438120291
  N           1.49537737980376      1.30797318491289     -0.00026669083965
  N           1.70738145730684     -0.88153293110158      0.00018623365418
  N          -0.95976231602467      1.42581458819224     -0.00044636375245
  N          -1.99599922598822     -0.66034980353177     -0.00011102554567
  C           0.23885654113807      0.77652768634463     -0.00021896894874
  C           0.34549301190231     -0.57888059155137      0.00007490505612
  C          -0.80257133848194     -1.42399682424833      0.00016805100109
  C           2.46285133341490      0.26744778109963      0.00005574465869
  C          -2.15952248153069      0.71139716767959     -0.00041541160381
  H           1.76215355446664      2.27728716703796     -0.00045780925262
  H           2.10234647679102     -1.80556678235885      0.00041915037676
  H          -1.04423852299301      2.42915401300411     -0.00065226986058
  H          -2.85531663549499     -1.19214017427949     -0.00009190476494
