27
Coordinates from ORCA-job 117549 E -465.839288257721
  O           1.62866112380285      1.65901935834204      1.19624185890451
  C          -0.00399770840213      1.11129922483519     -1.26421251614791
  C          -1.29856554448264      1.19420985082324     -0.43731221919775
  C           1.03035127476597      0.22936286438950     -0.64649905086410
  C          -2.04440477389064     -0.13219964626623     -0.32770278221893
  C           2.71091198693952     -0.51826879149862      0.95005933527485
  C           2.50929072750843     -1.57540751787253     -0.14638636921750
  C           1.75858645935479      0.62012214255876      0.58712022641838
  C           1.45716109846595     -0.97709190938156     -1.03916000884247
  C          -3.33876704298475     -0.02998560977395      0.47619995813348
  C          -4.07913890727428     -1.36003175235566      0.58933947923465
  H          -0.23376886715204      0.75762912188598     -2.27311394396729
  H           0.41225668936274      2.11819329070919     -1.35618419707416
  H          -1.05619527328090      1.56880153262237      0.56011575887068
  H          -1.95273921576013      1.93979786149701     -0.89941343852624
  H          -2.27176961597453     -0.50676637391808     -1.33341408985369
  H          -1.39418985619327     -0.88248549122181      0.13413553400610
  H           2.46475005649249     -0.88452213878726      1.94803049843657
  H           3.73064373424386     -0.13333637500994      0.99496138918192
  H           3.42739203919148     -1.77778585536283     -0.70554322845887
  H           2.17931193225989     -2.53819642445883      0.25447837985201
  H           1.09288174065737     -1.49628809413798     -1.91816942444640
  H          -3.10882199730327      0.34852379565422      1.47756520952439
  H          -3.99333266170518      0.71584159995791      0.01296423626649
  H          -4.99902435175656     -1.25864493353995      1.16859622824156
  H          -4.34792565009728     -1.74553316268977     -0.39760073660912
  H          -3.45842139678771     -2.11436356700043      1.07978591307883
