39
Coordinates from ORCA-job 11769623 E -585.903409311418
  C           0.11275751005598     -0.68211748630467      0.82921142639946
  C           1.54513434619145     -1.07456144652727      0.33941845689175
  C          -0.14252887677539      0.82593021620873      1.05528404200381
  C           1.73378154998412     -0.88879181863812     -1.18045266735786
  C          -1.63353455144967      1.02187579105252      1.39305752481363
  C           0.28441153492468      1.78046429828174     -0.04908144670810
  C           1.69738269537497      0.53041262058636     -1.74233798397890
  C          -0.98023547018499     -1.32502290180020      0.00996332550680
  C           0.40059297994313      1.31105560720195     -1.47596031517126
  C           2.60514545339879     -0.28457959375944      1.11891059026365
  C           1.76857915119524     -2.56623474330405      0.64627003290372
  C          -2.54367594677116      0.57577082258250      0.25474720313777
  C          -2.16752170946176     -0.78564194801790     -0.26286156353586
  C           0.57248377206547      3.04376697595795      0.26048394941552
  C          -3.18891421696411     -1.48234398579795     -1.11163917457435
  H           0.04682935762929     -1.12119666513506      1.83473442165495
  H           0.41783588686811      1.11680010072343      1.94567569161099
  H           2.69769591339066     -1.33353021691234     -1.44853391149786
  H           0.97501514568473     -1.48467475409975     -1.69566670311487
  H          -1.86452400423113      0.43069948309038      2.28489308486602
  H          -1.81538731241244      2.06871617990039      1.64058452620959
  H           2.54082668659008      1.11322721687840     -1.36299890900217
  H           1.83723175787290      0.46087325207809     -2.82523299782841
  H          -0.77703943132704     -2.31859456068147     -0.37383477461140
  H          -0.45085557546814      0.68655082376666     -1.75189549431022
  H           0.38458382569678      2.18757615905505     -2.12705876307876
  H           2.49634165388364     -0.45098614519593      2.19367338332381
  H           3.60585761708020     -0.61662661488408      0.83267707203953
  H           2.54626626460870      0.78723357970275      0.93899389727509
  H           1.64307186189189     -2.76836786865259      1.71242712296163
  H           1.07745953791335     -3.20883717918408      0.09932595049961
  H           2.78132805684666     -2.86317475711726      0.36565323376242
  H          -3.58551550891889      0.56221726710151      0.59091838156015
  H          -2.51195099697992      1.30135530199333     -0.56838475018782
  H           0.84312353505638      3.76711757120357     -0.49927416166016
  H           0.54812282075924      3.39958029888432      1.28441405859216
  H          -4.11780911553990     -1.64589011452772     -0.55594021513415
  H          -3.45118197428953     -0.87228054826078     -1.98287431548991
  H          -2.82780822413238     -2.44746021744899     -1.46853322845001
