48
Coordinates from ORCA-job 11778225 E -853.059088485513
  O          10.27388138438601     -1.17072014887677      0.48152611210545
  O           9.29347143007804     -0.63757634432142     -1.43604175679171
  C          -6.62046630339364      0.20569956358638      0.23197658656200
  C          -5.21581258010155     -0.03678275417992     -0.31480327731377
  C          -7.66793444408053     -0.74757258186475     -0.33783960932297
  C          -4.16927754348142      0.91680580419951      0.25600985554844
  C          -9.07312728161266     -0.50369429225865      0.20639746718048
  C          -2.76653872622790      0.67421102016031     -0.29450074556154
  C         -10.12191010276559     -1.45696889716367     -0.36239444116511
  C          -1.71940307427263      1.63370942101495      0.29005308802176
  C         -11.52309075931800     -1.20369248091811      0.18765602168399
  C          -0.35993397736809      1.42807997122439     -0.28799440939947
  C           0.72951697094040      1.06225631454326      0.40285397850893
  C           2.02456453165187      0.85490121214962     -0.18706880670439
  C           3.13077508271690      0.48836439427234      0.49709301264798
  C           4.40977208399689      0.28753960120133     -0.11101508189699
  C           5.53154320242114     -0.07902085059163      0.55165855234845
  C           6.79253247996957     -0.26919977888546     -0.09606763517438
  C           7.93383827755112     -0.63242073193203      0.51770431451203
  C           9.18184177935217     -0.80053189497263     -0.24919379453928
  H          10.03994613804288     -1.26454717558361      1.41321071781786
  H          -6.60421493587108      0.11432545099529      1.32401802037706
  H          -6.91778933686911      1.23887116120268      0.01910658224585
  H          -4.91804142717250     -1.06979386674627     -0.10245476689555
  H          -5.23180985722560      0.05546851557688     -1.40670631322205
  H          -7.68260155605354     -0.65742813868571     -1.43004409732781
  H          -7.37130030876826     -1.78065506895060     -0.12345567647214
  H          -4.46669997348620      1.95030027848593      0.04518187883977
  H          -4.15099329722399      0.82294042390511      1.34769424405638
  H          -9.05909583265992     -0.59318846798870      1.29885815867934
  H          -9.37043617134673      0.52932248074293     -0.00837852836824
  H          -2.46075386972137     -0.35583388162772     -0.08637703660832
  H          -2.77971842528384      0.77546036782514     -1.38502225502317
  H         -10.13481311056080     -1.36710255585221     -1.45381376963379
  H          -9.82438759011951     -2.48864042112497     -0.14660972888855
  H          -2.04524078855281      2.66233394539877      0.09094025144551
  H          -1.68220720464487      1.52080845672607      1.37721754940490
  H         -11.54532226421247     -1.31951313761181      1.27427840662326
  H         -11.85768896809369     -0.18885958622999     -0.04209442125059
  H         -12.25148970914473     -1.89806469486047     -0.23578827782186
  H          -0.26671834236835      1.57319167632551     -1.36258539242393
  H           0.64745932046008      0.91021441510619      1.47655782174344
  H           2.10418205129693      1.00759369306343     -1.26066486991293
  H           3.05913656933084      0.33423042595622      1.57061872297735
  H           4.47350479660463      0.44383004344788     -1.18504115598427
  H           5.48350641469592     -0.23882415570827      1.62538226812635
  H           6.83951821473702     -0.10913461570765     -1.16951002626513
  H           7.94596003376906     -0.80591211446713      1.58944826251137
