42
Coordinates from ORCA-job 11770062 E -662.358024897151
  O          -0.96006653723338      0.95961240017557     -1.42893161812024
  C          -0.80453828280212      0.96466402992582      0.00208399524890
  C           0.04301577642817     -0.27734915501688      0.35809326087359
  C           1.41260725591484     -0.24444747872162     -0.36144771333657
  C          -0.05999220634746      2.24515778147747      0.44730082822267
  C           2.14789146798749      1.03548975345251      0.05562945875901
  C           1.32468814440848      2.29313528331353     -0.20305849922514
  C          -2.17991743356675      0.82462890630825      0.66148493115438
  C           2.26504039402826     -1.51805745378538     -0.15101030898779
  C          -0.73950117631325     -1.55077986621425      0.16667428928715
  C          -2.92986986388278     -0.40498313213249      0.15533873360891
  C          -0.82405964843305      3.53919800261501      0.16312225049203
  C          -2.06517049423423     -1.63093020874253      0.08138326434478
  C           3.57100984114173     -1.46505830581326     -0.94951415342308
  C           2.54839154276693     -1.84378091984404      1.31788162602989
  C          -2.78010916548938     -2.93316753245398     -0.12456258353091
  H          -1.55681743446853      1.67631478094381     -1.66933250090666
  H           0.25830881154477     -0.18232862886314      1.43094043319549
  H           1.20925871657761     -0.18153241166612     -1.43453705443076
  H           0.07228031444571      2.16529482400949      1.53305917785775
  H           2.39102417724041      0.98107567556573      1.12247262366336
  H           3.09747078861999      1.11633683037262     -0.47564289161127
  H           1.19634885328886      2.42672556312296     -1.28086644132651
  H           1.86405124315174      3.17170584706140      0.16228908144600
  H          -2.03845926885421      0.75753599375014      1.74419566018934
  H          -2.77992305950587      1.71890425570751      0.47854597516811
  H           1.69159476920965     -2.35080929665589     -0.56593575260075
  H          -0.17311760294793     -2.47242991650608      0.11641849148439
  H          -3.79284940579350     -0.60193783217548      0.80012416230480
  H          -3.34369637690415     -0.21030537369099     -0.84094391281212
  H          -1.77134065334439      3.59727791689801      0.69930534693652
  H          -0.22430443661164      4.39987653652675      0.46500181580442
  H          -1.02733021802882      3.65804919587587     -0.90526311627702
  H           4.27543861072105     -0.74399086845396     -0.53035072350186
  H           4.06205924712698     -2.44061740651504     -0.94288457871256
  H           3.38746199041281     -1.18896729651737     -1.99057859777094
  H           1.63136558732305     -1.97124282965996      1.89509119037802
  H           3.11840488504258     -2.77204270966079      1.39766060147252
  H           3.13825758840679     -1.05844195231917      1.79547396475742
  H          -3.47611922102872     -3.13569369611449      0.69606626517894
  H          -3.37771582038841     -2.90757396019106     -1.04201962741253
  H          -2.08290169960934     -3.76842034538847     -0.19678535387168
