40
Coordinates from ORCA-job 11776892 E -810.374103581589
  O           0.33792789705298      0.82325307228649     -1.82494204586979
  O           2.21752282955355     -2.69593016701523      0.40299706423966
  O          -3.02747340585641      1.44422850252829      1.06449524254789
  C           0.75560080140465     -0.75929929867717      0.01720622036408
  C           0.97507016578845      0.68290374956717     -0.53734000908465
  C           2.14413578897165     -1.26912669391730      0.45910559687274
  C           2.50168101837235      0.72871223042139     -0.82734125564729
  C           3.02668150445354     -0.69567707071259     -0.64735396681396
  C          -0.38266850884124     -0.96185820364276      1.00220732605924
  C           0.46500406994778      1.84329420168982      0.33110789105493
  C           2.56251825144662     -0.78412826135673      1.84437705252750
  C          -1.68179473170460     -0.42573897395089      0.45068959108299
  C          -0.76174836319365      1.91993687383942      0.87757358817474
  C           1.34919619931825      3.05488818737131      0.44701686688553
  C          -1.91846238668788      0.99744178142342      0.80744351255525
  C          -2.52102446584245     -1.12410860471252     -0.33737746428172
  C          -2.26383881503044     -2.55139765710524     -0.73164249364932
  C          -3.78466433193314     -0.56596540626245     -0.92931470306768
  H          -0.61108394552167      0.69321735223059     -1.70182702074409
  H           1.83342345575573     -3.05972581261825      1.20818860319467
  H           0.52223938869791     -1.34763831278780     -0.87388970019367
  H           2.66586858835717      1.12508881049878     -1.82758585046915
  H           3.01172833343706      1.38706760804550     -0.12995577687862
  H           4.08796524578395     -0.73202882766473     -0.39952752365256
  H           2.87051213296378     -1.29479332574074     -1.54595685823329
  H          -0.47326342888449     -2.02432219331493      1.23216271079269
  H          -0.16558155378788     -0.45772517604554      1.94507336178462
  H           1.92807405628927     -1.21824762758859      2.62078905930925
  H           3.59397374764089     -1.07798745229513      2.04276136439575
  H           2.48733512046270      0.30024455110706      1.93667372554179
  H          -1.03987903422599      2.84989311615332      1.36187188919811
  H           2.22069783667341      2.86182276926929      1.07795573762052
  H           1.72684317161535      3.35464088485741     -0.53325639452786
  H           0.80406234756464      3.89194741722756      0.87901375073822
  H          -3.12832918887568     -3.17001317421469     -0.47177693107888
  H          -2.14945572654583     -2.62344092294787     -1.81733386612954
  H          -1.37970605431664     -2.98656721236515     -0.27436420510845
  H          -4.65114693055653     -0.97532963823685     -0.40053066148531
  H          -3.85247501642342      0.51468458186234     -0.86063738765136
  H          -3.87567106332377     -0.87841667720602     -1.97326404037298
