35
Coordinates from ORCA-job 11777169 E -844.873008047933
  O           1.25329650450624      1.52171788312862      0.72124250327798
  O           3.45674193491924      1.83786195664444     -0.94302370424380
  O           4.99930675919649     -0.24046330271167     -1.58711605325315
  C           1.71763669047247     -0.80781221762429      0.91177227025764
  C           0.49959887810869     -0.96632782177017      1.79305770013816
  C           2.02178136451795      0.44699759082707      0.36822436727618
  C           2.53485244554841     -1.88869968276944      0.60435818186555
  C          -0.77062072801554     -0.97407824572955      0.99308660970283
  C           3.13672554520092      0.60580785113137     -0.45546100805679
  C           3.63457862809031     -1.74708898024812     -0.23524511433008
  C           3.92904557899182     -0.50210011981345     -0.76056964855004
  C          -1.73425571853727     -0.06018542712965      1.10787640004590
  C          -2.97468813306338      0.02972117103118      0.33450373710854
  C          -3.34823994313337     -0.91071250964094     -0.63505352552463
  C          -3.83318926563902      1.11157835714555      0.55973839232869
  C          -4.52790988149274     -0.76940333734640     -1.34703954179799
  C          -5.01627228973699      1.25528486749308     -0.15286841784852
  C           0.53708575039868      2.16239054209360     -0.33994637841917
  C          -5.36977359483076      0.31476505577364     -1.11127436920339
  H           4.26129858387076      1.74541621166045     -1.47088092835736
  H           5.53311201986030     -1.03417817910750     -1.69459774452889
  H           0.59455047798130     -1.90912086067928      2.34031108968329
  H           0.46072431688911     -0.16131167136576      2.52807525143511
  H           2.30728296325404     -2.86063120881723      1.02340930984507
  H          -0.85425810570494     -1.77079653945380      0.25993452470633
  H           4.26191790825253     -2.59863014876018     -0.47258146301637
  H          -1.59126419143858      0.73373428421853      1.83597257592766
  H          -2.71094795658791     -1.76241902212322     -0.83270966049408
  H          -3.56254942568547      1.84885474807916      1.30638324927160
  H          -4.79587928258997     -1.50921268607674     -2.09103579384638
  H          -5.66180871751034      2.10255390853425      0.04151845118483
  H          -0.09002025291777      2.91527029469007      0.13339748798484
  H           1.21879807974449      2.63804817277152     -1.04466416199318
  H          -0.09765674609332      1.44021770964442     -0.85829947066531
  H          -6.29106919682641      0.42152035630043     -1.66924411791108
