53
Coordinates from ORCA-job 11771639 E -1042.897778245851
  O           2.09600940478376      0.73614787016329     -0.81720220234269
  O          -3.63774382127537      0.06524033842079      0.11076572468306
  O           2.99436260689980      2.53261822553403     -1.79498764600379
  O          -3.96410747118830      2.06055237017653     -0.89081893491793
  C           0.61754091917750     -0.22317666983485      0.87149858632982
  C          -0.05835536793168     -1.07405798781633     -0.25394648322920
  C           2.11110454726212      0.02200774497861      0.45416764215616
  C          -1.61241648679263     -1.22880611180960     -0.18441011238946
  C           2.86838780692230     -1.30311112752624      0.22066424702806
  C          -0.12116417341086      1.12756610795639      0.97230063285321
  C           0.67280058592120     -2.40378014463164     -0.45360667401262
  C          -2.19970095518293      0.18552145071456     -0.03953378972752
  C           2.13968138413994     -2.17902528597994     -0.79953043667134
  C          -1.63154319274224      0.97532198420916      1.12222296708326
  C           2.87846052742971      0.96290323130795      1.42374708240901
  C           0.61672076237123     -0.90217648472635      2.25441397869747
  C          -2.11516839841917     -1.79700881388239     -1.52447070450136
  C          -2.10703433796021     -2.16098748732622      0.93216613746055
  C           3.53250539352392      2.01119701672125      0.52857632541389
  C           4.32373537492489     -1.10573761677481     -0.20849905937758
  C           2.87648324397722      1.84039382476805     -0.82551939742363
  C          -4.40075293536418      1.07093490964692     -0.36005177980569
  C          -5.86066229722549      0.78223163186497     -0.13311331905334
  H           0.11217865668465     -0.49371040060454     -1.16600668462888
  H           2.87101177794011     -1.82257405510033      1.18402230791905
  H           0.25535534441394      1.70847201017499      1.81593424488667
  H           0.07803228365898      1.71057500765432      0.07109813259788
  H           0.59588242566919     -3.02624770970890      0.44088326055934
  H           0.20481775226456     -2.97041081667329     -1.25817485195165
  H          -2.01229498779092      0.73845186609955     -0.96185936798082
  H           2.21109158671833     -1.70147822273256     -1.78087076394094
  H           2.65839223648538     -3.13799079486443     -0.87901374468067
  H          -1.89345856720764      0.48666887761387      2.06274628555070
  H          -2.09609040133798      1.96216189268437      1.13665133504556
  H           2.19750437276798      1.43663358446852      2.12415152882869
  H           3.60159640051390      0.40331732081534      2.01280831597618
  H           1.33702250096889     -0.42466203330557      2.91969935278864
  H          -0.35389194111296     -0.81884701161280      2.73453114403269
  H           0.86514514036256     -1.95984832777489      2.20863858449651
  H          -1.84738597050615     -2.84612801024340     -1.64500395026793
  H          -3.20229953015724     -1.73194268213729     -1.57164006221739
  H          -1.70311916712533     -1.23998611929763     -2.36880168261374
  H          -1.94118755105988     -1.76251910044914      1.92956799427169
  H          -3.17753490409379     -2.33146801301879      0.82345601014537
  H          -1.60911464876867     -3.12883814872268      0.87262096114690
  H           3.39038657211658      3.03625716048329      0.86768625435869
  H           4.60501268415772      1.86040158553721      0.39888194033208
  H           4.91576012272082     -0.57023007035544      0.53416152975852
  H           4.79636277951850     -2.07789684328672     -0.35765206031224
  H           4.38549344688114     -0.56505454642959     -1.15443137319834
  H          -6.04977354700030      0.63851362620859      0.93164369679086
  H          -6.45771174549736      1.60808968908331     -0.50960252316173
  H          -6.13974424202556     -0.14174669065950     -0.64187459919007
