62
Coordinates from ORCA-job 11783365 E -1123.650453336468
  O          -5.68271247824631      1.88518605000936      0.46155833088845
  O           5.50827425493049      0.58123306033896     -0.07742876244327
  O           6.10028227064774     -1.24590104314482      1.10651154860881
  C          -3.21940629837358      0.21874564786652     -0.11833132435103
  C          -2.31604655699302     -1.00598790213608      0.12936990306280
  C          -0.90409652254845     -0.87727848837810     -0.42435279774540
  C          -0.23102648464161      0.38646491747721      0.14839872112776
  C          -4.53710457396445     -0.28547279139030      0.52353376418886
  C           1.19439898776028      0.60982061679560     -0.43769708741650
  C          -2.55735368001972      1.41702614587986      0.56527948861939
  C          -3.17351678732526     -2.20036390172194     -0.29311316438687
  C          -1.12930014874507      1.63202469049061      0.04867331270981
  C          -4.61175456413755     -1.78133633517330      0.10311283916163
  C          -0.06685884296744     -2.10835012866327     -0.08013565693252
  C          -3.43361315915295      0.50589119007026     -1.61277384937295
  C           1.97407355926133     -0.70105434582974     -0.44860519776681
  C           1.94594765550151      1.61291377221971      0.47501419105049
  C          -5.81807157516468      0.48196320642719      0.20553872970825
  C           1.39959715070462     -1.88776506993011     -0.26618195923681
  C           1.13463563513908      1.16287753828550     -1.87675881751760
  C           3.46231248728226     -0.60385217403413     -0.67954943909791
  C           3.43891025785770      1.74700076590872      0.17959115726028
  C           4.11274209666602      0.39382306344932      0.27053487845148
  C          -7.02727950307394     -0.07671269167706      0.94718521499295
  C           6.39460224324193     -0.31309362732016      0.40218491325649
  C           7.78864516075553      0.01413599760373     -0.06270616421776
  H          -5.50575431512047      2.00467432172024      1.40212838532598
  H          -2.20690903013412     -1.06909378866161      1.22201895967111
  H          -0.95270902438928     -0.79592399650859     -1.51488373035250
  H          -0.08649394945910      0.18194557246502      1.21807393410103
  H          -4.39643353717332     -0.23982455162327      1.61229329992374
  H          -3.14350587690500      2.32337876401844      0.40868658255376
  H          -2.53086488832192      1.23238751537605      1.64582126216141
  H          -3.09693172274416     -2.36519833142450     -1.37035850366251
  H          -2.86578658789528     -3.12703606905800      0.19139673823763
  H          -0.67589550823478      2.45419597958265      0.60546806834637
  H          -1.18371193324207      1.96646748023216     -0.98779096511831
  H          -5.00174177472475     -2.39594157161366      0.91429483501803
  H          -5.29863658728296     -1.90593818765166     -0.73698671047565
  H          -0.26107734369282     -2.40139549932563      0.96101665867832
  H          -0.38730460258673     -2.96164893930073     -0.68556414091695
  H          -4.03036696560628      1.41038893419078     -1.73568093477654
  H          -2.49295170107282      0.65765558564697     -2.13892844080074
  H          -3.95523727469969     -0.30952822034934     -2.11526527255614
  H           1.47746998922778      2.59505229763842      0.39787048136538
  H           1.82245337765645      1.28661396316349      1.51269966747673
  H          -6.00925963963454      0.42714477431220     -0.86857843471672
  H           2.03005653380361     -2.77227633898108     -0.25483457629524
  H           0.75720414114241      2.18563794350320     -1.89497246478141
  H           2.11974143671473      1.17294212711525     -2.34056755917611
  H           0.48942170411350      0.54711860593263     -2.50395505309670
  H           3.92174873281827     -1.58437312176014     -0.55956338898104
  H           3.67007231684658     -0.26720774528035     -1.70122758827060
  H           3.60334794129314      2.16088945467607     -0.81863938067720
  H           3.89953253993993      2.43799260295309      0.88912202717790
  H           4.06956739271172      0.00829227555294      1.29043700256721
  H          -6.86149263863430     -0.04356564712895      2.02862407653707
  H          -7.91270555427884      0.51670075237695      0.71725685017073
  H          -7.22400106518288     -1.11378012640744      0.67144782858931
  H           8.04462000728730      1.03879645441885      0.20921343070085
  H           8.49374806967762     -0.68093581729475      0.38462514899577
  H           7.83833375338865     -0.05690961592926     -1.15059786554596
