25
Coordinates from ORCA-job 11789373 E -464.594996045266
  O          -0.73428344048918     -2.39324274609361      0.15388126039182
  C          -0.92578988344444      0.83123317280614      0.19422490550591
  C          -0.88666744827212     -0.16677199596372     -1.02391972004309
  C           0.11625569516951     -0.12757331028248      0.88136031406441
  C          -0.52269882239517     -1.22317752420812      0.02052069538887
  C           0.35377080160901      0.06760284174960     -1.90526086313479
  C           1.50345934216840      0.05305583451744      0.28143821324502
  C          -0.54091354071549      2.28043897004514     -0.04656688850255
  C          -2.27392745921345      0.75291535996963      0.90733615563279
  C           1.58860187046833      0.15151311142647     -1.04610644408728
  C           2.66973973166685      0.09106584646405      1.21461861968535
  H          -1.79672661392186     -0.30948237662558     -1.60674057188850
  H           0.11658047667181     -0.22358788566729      1.96578078469147
  H           0.44452560394129     -0.75879430386408     -2.61795689680924
  H           0.23226191214775      0.97572790625019     -2.50725110096654
  H          -0.53185671818883      2.83025104917668      0.89766533248287
  H           0.44115742756126      2.38433964034051     -0.50277379287562
  H          -1.27407500124625      2.76099878271748     -0.69912697690312
  H          -2.23004414442616      1.26782208301341      1.86986191781086
  H          -3.05259356424950      1.22864670381264      0.30629098578082
  H          -2.58187319483627     -0.27801665735051      1.09416100405038
  H           2.54783023594013      0.29228089805443     -1.53162669227196
  H           2.56934083088296      0.91544665966831      1.92782855092687
  H           2.72493507512161     -0.82964979772595      1.80321251713107
  H           3.60968282804983      0.21147473776923      0.67545069069421
