30
Coordinates from ORCA-job 11789644 E -542.258004929305
  O           0.90114391410069      0.22157515293614      1.54973795371762
  O          -2.28624100033371     -1.94943030330250     -0.26556446013190
  C           0.84733011108202      0.06998747485904      0.11819642558816
  C          -0.09205902523295     -1.08273437098547     -0.24545401444927
  C           2.27362560606153     -0.15811163665303     -0.45340643461514
  C           0.25468661518001      1.38373742735035     -0.40404686104532
  C          -1.49537249478718     -0.89650409266611      0.30734834994185
  C          -2.05209650537359      0.47487485632150      0.00969329760911
  C          -1.23692931839858      1.48078142994398     -0.29422824026545
  C           3.19234677774620      1.04259710123269     -0.21024613842668
  C           2.93899885936632     -1.42677712304031      0.08965850089830
  C          -3.53683778585618      0.64665183746745      0.13642316558091
  H           1.17608247228409     -0.61856889414872      1.93343648359054
  H          -3.12079020176513     -2.00510406255300      0.21063067842122
  H          -0.16443351081367     -1.16148898384158     -1.33361179116582
  H           0.29656340551302     -2.03490004731078      0.11825171964619
  H           2.14988994455822     -0.28454316825544     -1.53490224840038
  H           0.71191628973236      2.20892334779295      0.14627779505133
  H           0.54918800139206      1.51717471694570     -1.45141172806835
  H          -1.47322287459030     -1.02329718573073      1.39863543475061
  H          -1.66186805795690      2.46417594114374     -0.47543101679497
  H           3.25751411683330      1.26306934745190      0.85663549102374
  H           4.19875168794884      0.82749721690442     -0.57415161680698
  H           2.84462736493279      1.94076296442620     -0.71982429849707
  H           3.09750157499077     -1.36011949022952      1.17002275848050
  H           2.36480143288526     -2.32914741848405     -0.11876798886391
  H           3.92306168100343     -1.55492684741014     -0.36405128500271
  H          -3.88668234800534      0.33636120309775      1.12809861993278
  H          -3.82669343678202      1.68724116293909     -0.00799203397310
  H          -4.07163329571538      0.04051744379848     -0.59950851772582
