18
Coordinates from ORCA-job 11788274 E -347.896738470041
  O          -4.02957997430267      0.08770658650069      0.16401970882874
  C           2.51633420658981      0.51844317302768      0.53217877877878
  C           1.94464721118132     -0.70831719570912     -0.10149348437505
  C           3.37333978109115      1.32554933983354     -0.45276632754696
  C           0.65162233106380     -1.01483891127963     -0.29214104188206
  C          -0.47788517787758     -0.20783238355760      0.09781285541829
  C          -1.76361643770255     -0.54734776705976     -0.10719639072404
  C          -2.85120734480810      0.32728568153603      0.31519542951790
  H           1.73328533642177      1.15428412050699      0.94591204775273
  H           3.14451836170206      0.21095343040842      1.37578482937972
  H           2.68179920364932     -1.42021803465618     -0.46366675820083
  H           3.82345641950006      2.18740503468951      0.04246569195511
  H           4.17960656424199      0.71449788314242     -0.86400928299107
  H           2.76919792665036      1.68653020531081     -1.28676214378502
  H           0.41565170714437     -1.95258317330803     -0.78522259697335
  H          -0.28051883853031      0.74036590258565      0.58895656545548
  H          -2.03933320684120     -1.47834960605977     -0.59114659338395
  H          -2.52369606917360      1.26950771408832      0.80617471277558
