32
Coordinates from ORCA-job 11819488 E -543.502515942611
  O          -1.46695201083501     -0.42585513530570      0.55230914425155
  O          -2.05918112979794     -1.92073322064332     -1.03068744464531
  C           0.22527875405962      0.42765548909005     -0.98343753533270
  C          -1.19592444465540      0.59306051768524     -0.45388266109046
  C           1.33377305653129      0.57302466645045      0.05748866794226
  C           2.71730752494730      0.27494488480130     -0.51509272559013
  C          -1.48260352015687      1.93310581343700      0.20497274880064
  C           3.84190806844398      0.41924804761112      0.50767234340134
  C          -2.95380732666374      2.12368797705492      0.56211909337598
  C           5.22089585176730      0.11492066163703     -0.07160981005150
  C          -1.88648753614050     -1.63198990295983      0.12690481629475
  C          -2.10530485172418     -2.56131420700483      1.29129105955384
  H           0.29319248068585     -0.55394958114569     -1.45893475718089
  H           0.36783416043451      1.16405559690438     -1.78127335814354
  H          -1.89482653632615      0.42622546771394     -1.27509992216909
  H           1.33035650087063      1.58587850048561      0.47129867395331
  H           1.13456623409123     -0.10161442609334      0.89535591552012
  H           2.72844389701042     -0.74199912685398     -0.92361430384244
  H           2.91239458067471      0.94272339198496     -1.36240930794713
  H          -0.86563253093523      2.03370458774249      1.10076420786675
  H          -1.16151025785406      2.71661426787434     -0.48776382533845
  H           3.83100354652870      1.43655806766242      0.91320736510297
  H           3.64450930107632     -0.24686671439833      1.35431097588120
  H          -3.28525552650975      1.35993262087049      1.26688656261465
  H          -3.12301115600352      3.09931475782137      1.02084098331009
  H          -3.58590171323092      2.05716613226433     -0.32674995685431
  H           6.00470226510051      0.22521081767088      0.68037480178926
  H           5.26874471810664     -0.90735199033997     -0.45527811376206
  H           5.45643533475531      0.78849075853407     -0.89952937597416
  H          -2.80239450180107     -2.11534118639048      2.00173931538734
  H          -2.49187072248060     -3.51083426131719      0.93172067706270
  H          -1.16189950996940     -2.72033727284374      1.81638774581343
