33
Coordinates from ORCA-job 11817856 E -917.960443025509
  O           1.89133191682497      1.31475915370524      0.36690226495915
  O           3.41095699132505     -0.40450579507362     -1.40713823516173
  O           1.13009105234763     -1.73620837789430     -0.71908959990518
  O          -1.96891561137025     -1.21482610524548      0.16646458766170
  O          -3.73088888882847     -2.56457498817806      0.03100968008173
  C           2.26112209729340     -0.05370600064179      0.71560836266556
  C           3.57080987475182     -0.43727180567514      0.00562292115950
  C           1.00109807285878     -0.92809740575591      0.46071840427399
  C          -0.04892335975258      0.12674987477349      0.30602406996206
  C           0.55819891785510      1.37017500220860      0.22221038565598
  C           4.64916254622408      0.59389912535349      0.32479163430852
  C           4.00798463471854     -1.82871400684322      0.48064755904980
  C          -1.41358971797866      0.02439629957608      0.13729607138238
  C          -0.16639219669521      2.54230881650734      0.00040064205388
  C          -2.18653788567880      1.17749070650261     -0.07894663976851
  C          -1.53530038790728      2.42230789363558     -0.14068140923196
  C          -3.59525836468365      0.99401208944485     -0.23554223114204
  C          -3.34699867543248     -1.42787815511201      0.00124836357945
  C          -4.14878802400731     -0.23648082923123     -0.19313411841111
  H           2.67997079678585     -0.99729086992846     -1.63107645011835
  H           0.28878706197717     -2.18472922482536     -0.86668208194574
  H           2.44130678061029     -0.04328673578711      1.79362030586581
  H           0.82398857952660     -1.58623275883174      1.31386779112230
  H           4.84228900547058      0.64207583698060      1.39785836096208
  H           5.57092660869533      0.30974362719588     -0.18303728050058
  H           4.34808499796899      1.57877838155665     -0.02636870445730
  H           4.15807809016463     -1.85012292225378      1.56264933665026
  H           3.27170957530738     -2.58598139189984      0.21414837901083
  H           4.95238879120596     -2.08327400922382     -0.00043950613981
  H           0.33304779663146      3.49831963921211     -0.05938315190308
  H          -2.13545255924002      3.30772148975338     -0.31038887343922
  H          -4.21892121695105      1.86644220443888     -0.39398244420501
  H          -5.20925730001786     -0.40177175844391     -0.31141039407534
