36
Coordinates from ORCA-job 11816951 E -732.973447690990
  O           0.26464075247440      0.06613711700473      2.02008579589334
  O          -3.49378820082277     -0.40716976729197     -1.88764837945735
  O           4.15342974653182      1.15909955327072     -0.69914346674373
  C          -1.15788009876457      1.23294454300691      0.38661859593610
  C          -0.23076516289781      0.00340020762131      0.68347454112564
  C          -1.82021812235886      1.04199458045765     -0.98709646989216
  C          -0.95898439205084     -1.32277139113537      0.45130149074497
  C          -2.25812296100474      1.33924035326721      1.45743000480583
  C          -0.34342485815495      2.52942318363192      0.39170297583916
  C           0.97097076724145     -0.01993661581594     -0.23091400911642
  C          -2.52962579826844     -0.28532706696170     -1.15463261631038
  C          -1.98116245210060     -1.42347574019053     -0.40999512526118
  C          -0.43100779576489     -2.51162415245303      1.19030341160503
  C           2.23551294383318     -0.02920659566100      0.16419879037174
  C           3.40710690256707     -0.06433547800293     -0.77200328755815
  C           4.30612072367651     -1.26874209444509     -0.51289826246769
  H          -0.48604103173133      0.11831203859535      2.62010012867515
  H           4.50237873006606      1.24996950543966      0.19577857279438
  H          -2.53924119044054      1.83846002380730     -1.18316647582245
  H          -1.06686368908494      1.10511948173438     -1.77845151289744
  H          -1.84746512022187      1.61738451033763      2.43060002411008
  H          -2.96102387379002      2.12604222306501      1.18026966499809
  H          -2.82657252781017      0.41465472350637      1.56675618556816
  H           0.18209272516894      2.65288042076467      1.33895649935858
  H           0.39872946676157      2.54247816173368     -0.40605977745901
  H          -1.00708576464429      3.38531437653497      0.25306598223919
  H           0.74089682745609     -0.06069794455853     -1.28947271755531
  H          -2.46636988217312     -2.37639297886183     -0.58863685985403
  H          -0.63536859290346     -2.43133832528804      2.26032787660348
  H          -0.88198349792992     -3.43105990044701      0.82008268482280
  H           0.65422178922387     -2.57467360295681      1.08946857395614
  H           2.46282318667235      0.00062849057371      1.22572515774725
  H           3.04550536784702     -0.09638351592974     -1.80195383440672
  H           4.67610112877850     -1.25753148864876      0.51666114839743
  H           3.75878538738621     -2.20158824659327     -0.66183302911876
  H           5.16271356723307     -1.25024958911167     -1.18784428167177
