20
Coordinates from ORCA-job 11815467 E -498.361112949014
  O          -1.29022460979504      1.18479491909010     -0.25801195591282
  O           1.97405162477730     -0.10415429731137      0.35861669605106
  O          -0.20183198088485     -2.18636815762264     -0.23243994824095
  C          -1.62557542455192     -0.21455017184889     -0.44372565081349
  C          -0.31830638139922     -0.97439654205236     -0.21325895286004
  C           0.03737691390423      1.26230712193776     -0.01141825327934
  C           0.66729738041995      0.06094976395347      0.02857582722614
  C          -2.73293712543471     -0.62166461791956      0.50224728779533
  C           0.59102527690863      2.61508751706106      0.20704033701201
  C           2.70429115493568     -1.00258219400353     -0.48717017609701
  H          -1.93012853529663     -0.33015074477287     -1.48689929880905
  H          -2.43145960493236     -0.44659220992442      1.53591544647883
  H          -3.64439032422807     -0.05956342500473      0.29902056572176
  H          -2.93118370016680     -1.68631293026994      0.37464628853917
  H           0.13734640722171      3.07180952575595      1.09029029217867
  H           1.66821938400447      2.55830183786393      0.34789665852033
  H           0.36440304573999      3.25796920844908     -0.64653689089216
  H           3.71448543194838     -1.03800068855082     -0.08551050540821
  H           2.25748611684352     -1.99600626401295     -0.47555858698025
  H           2.73101494998576     -0.62150065081727     -1.51274518022996
