27
Coordinates from ORCA-job 11842593 E -465.833717537885
  O           4.01903786454327      0.53762617975269     -0.07841125206097
  C          -1.09322760489562      0.02722282928864     -0.16660043691390
  C          -2.59409863747716      0.08984010842646      0.18179402346430
  C          -0.27687583701869      1.15632174439126      0.47455506804936
  C          -0.47105452106120     -1.32386512965055      0.22063725741496
  C           1.17817287563705      1.14667161817071      0.00785465602184
  C           1.02244102768373     -1.32899705538295      0.18845212393006
  C           1.77526030397199     -0.22797171611038      0.07586036795605
  C          -3.23912802219567      1.40260029735684     -0.27182002622008
  C          -3.37278242281218     -1.08908019503750     -0.41107566167001
  C           3.23483655381514     -0.37927336783801      0.02473410013256
  H          -1.00521705155972      0.13153628756239     -1.25671899928265
  H          -2.67551131742179      0.03211038526206      1.27521694481928
  H          -0.71615157456121      2.12723663783721      0.24903190391835
  H          -0.31103838422615      1.03965278588127      1.56390563009180
  H          -0.79977476606484     -1.60810024471199      1.23044706874428
  H          -0.83608695175930     -2.11978057506026     -0.43329732634808
  H           1.25091055929652      1.51778802039607     -1.02045556130056
  H           1.78705493754417      1.82906947304389      0.60451931908051
  H           1.51726703696225     -2.29445940340909      0.25832077368610
  H          -2.80867916879523      2.27307030395063      0.22191224201144
  H          -3.12342806712973      1.53633916313623     -1.35141692174455
  H          -4.30855959476566      1.39835742225692     -0.05275099709781
  H          -3.04096838667142     -2.04969113206373     -0.01724815978383
  H          -4.43728175792102     -0.99491797979161     -0.18862456975672
  H          -3.26410835162786     -1.11567819429104     -1.49945508051871
  H           3.59373625851035     -1.42858026336618      0.08754351337696
