26
Coordinates from ORCA-job 11850 E -688.343297486703
  O           0.52089637075762      1.25541967524103      1.42540839301525
  O          -0.72521977368518     -0.70578725721286     -1.35451996232417
  O           2.09615053773528     -1.00498328261638      1.26090899359935
  O          -1.97561842561258      1.84118945660289      0.12423326630834
  O           4.18749125759496     -0.25776803812250     -0.50245524258209
  O          -3.27851375631980     -1.51699074833366     -0.30333657068527
  C           0.53784080361194      0.54084049331550      0.18227987267294
  C          -0.72226842236489     -0.30688484699162      0.00740778958124
  C           1.81705519243732     -0.29361484864406      0.04413728194306
  C          -2.00277626719059      0.45612798814880      0.42646921481183
  C           3.02399577371052      0.53824879823994     -0.35499889321111
  C          -3.23828180383870     -0.08813840799138     -0.28465953145138
  H           0.40987361126097      0.60912649668299      2.13377195773620
  H          -1.39385078566372     -1.39705855912218     -1.44626591387427
  H           2.39293877734634     -0.35637247799055      1.91290706979275
  H          -1.29390971842957      2.24058017128230      0.68015013477628
  H           4.17420918474450     -0.91842330138316      0.20159810043755
  H          -3.48134288948223     -1.84172422128735      0.58022031310327
  H           0.52319190861153      1.30701475719383     -0.59396913373497
  H          -0.64092890476659     -1.19185113514122      0.65349092937379
  H           1.64933318027270     -1.06381780788126     -0.70850282821748
  H          -2.12303976901785      0.31507666407371      1.51124264625464
  H           3.18206887506087      1.33366949702587      0.38914909141760
  H           2.83857023032448      1.01596433304269     -1.31869485950387
  H          -3.20187582470023      0.22926464758767     -1.32538827256108
  H          -4.14063536239712      0.33099795428098      0.16695915332160
