78
Coordinates from ORCA-job 11870462 E -1208.967830289058
  O           8.11021327165075     -0.97203332659360      0.67656416068262
  C          -0.19876796174282      0.64069993421502     -0.26969146634594
  C           0.53234652601905     -0.55331204752630      0.38797350629577
  C           2.02403293977092     -0.70611980855159      0.05128367414606
  C           2.66214560867434      0.66519826859227     -0.23273258510018
  C          -1.62630063954361      0.42558795595058      0.31644017796008
  C           0.50990863145248      1.94908131111726      0.17039119572165
  C           4.20832931302282      0.60996587691225     -0.15433971705317
  C          -0.40872643808762     -1.74170277526022      0.19412130099232
  C           1.97641032008827      1.74237147985384      0.60940299158390
  C          -1.81997521748222     -1.11526427336542      0.28893354978881
  C           2.41185670086768     -1.65653142472840     -1.07771366260898
  C          -0.24725840046562      0.53653204922253     -1.80297447589811
  C           4.71316462707567     -0.68604340999187     -0.78322103302899
  C          -2.80841901438456      1.17410661949558     -0.32567089476169
  C           4.72980871582804      0.66120865292871      1.30136547326616
  C           3.90730717043126     -1.65033501676530     -1.23089481828542
  C           4.76019475726686      1.81151642584794     -0.94970778691962
  C           6.20655258124700     -0.87279503800926     -0.75201752666349
  C           6.24119184635982      0.42964456472273      1.40468877539456
  C           6.68758890026270     -0.84732037565245      0.69779098587142
  C          -2.64813066646581      2.70034587981287     -0.29770546065491
  C          -4.09077812235103      0.79636481284827      0.36252565327064
  C          -5.14203720112476      0.22996406769488     -0.21686542758269
  C          -6.43303819303588     -0.12001605203131      0.46525733549290
  C          -6.67817256862702     -1.65034693634689      0.53596227000920
  C          -7.61496340526898      0.62108322873656     -0.18578098847051
  C          -5.63949522001582     -2.33717959551949      1.42256864558340
  C          -6.74195709845569     -2.32613559656923     -0.83588715135859
  C          -7.55848265657728      2.13399351014210      0.00623006888230
  H           8.43321293858605     -0.95307362362675      1.58422335264386
  H           0.49994368417678     -0.32105880979000      1.45903923570542
  H           2.50123190839347     -1.11037588374383      0.95164402550192
  H           2.44948925377061      0.90208177478548     -1.27982303639252
  H          -1.57735802306664      0.74502502678966      1.36442907125109
  H           0.48871979333151      2.66801827294860     -0.65192917407136
  H          -0.03913994830716      2.41171942214072      0.99301622526628
  H          -0.25818456745444     -2.20498824809831     -0.78178048197809
  H          -0.24440092953984     -2.52109467832804      0.94022225064463
  H           2.01137624578401      1.45371973903058      1.66342061126510
  H           2.50201308511065      2.69625507039244      0.53947604249661
  H          -2.35728056215638     -1.45135217413653      1.17506830942295
  H          -2.43568137045030     -1.40295622068942     -0.56516687255213
  H           2.08528597227138     -2.67589471171904     -0.85395699432476
  H           1.91588557982411     -1.38298874105541     -2.01558735321915
  H          -0.73622176286013     -0.37983010848676     -2.13609521997580
  H          -0.80323865781395      1.37560297981560     -2.22367908671042
  H           0.74622828245171      0.55852213011337     -2.24506845496143
  H          -2.88896692504996      0.85487922618346     -1.36941481309001
  H           4.48110186998587      1.62573346309198      1.74961147920051
  H           4.21000643491200     -0.10158737801032      1.88758120902618
  H           4.35956241109097     -2.53268302718224     -1.67487933251595
  H           4.36642617694579      2.74736274736309     -0.54997984465296
  H           5.84572091471874      1.87541494822827     -0.91713973594532
  H           4.46340337899595      1.73798582481601     -1.99750221690504
  H           6.48642507211801     -1.82286819703831     -1.20859697729064
  H           6.73242243080034     -0.08270344398711     -1.29523516497626
  H           6.78992428447454      1.26723055603737      0.96691718850642
  H           6.53179607366418      0.38405830858719      2.45974290174522
  H           6.24854334321492     -1.71300785180046      1.21417709810830
  H          -2.55232673190557      3.06307512897522      0.72890155549512
  H          -1.76832311775567      3.02879686308937     -0.84951069408346
  H          -3.52382091973286      3.17920612235964     -0.73868330680927
  H          -4.13970705535689      1.03120727298949      1.42568782873369
  H          -5.08820488434364      0.00713626231882     -1.28101165532143
  H          -6.36382985947485      0.22781272945195      1.50296726091999
  H          -7.65801428497720     -1.77464521103276      1.01202661025440
  H          -7.64483277187156      0.39228117851742     -1.25510826051381
  H          -8.54672023288661      0.23320211858377      0.23815554461290
  H          -5.60309059673783     -1.88255868982955      2.41547232985122
  H          -5.87270844608190     -3.39714063983683      1.54570061701460
  H          -4.64226686496587     -2.26043718125379      0.98598269936354
  H          -6.99463791862820     -3.38287811732165     -0.72656321684189
  H          -7.49384178476923     -1.87273287739916     -1.48332657858491
  H          -5.77830869482808     -2.27288129636120     -1.34738537274912
  H          -7.56382804074508      2.39322776450885      1.06817938935481
  H          -6.65003027277083      2.55371989120652     -0.42884414511880
  H          -8.41498801647978      2.62365432722054     -0.46138861700973
