28
Coordinates from ORCA-job 119039 E -728.173513648004
  O          -1.82304904829673      1.06551940299291     -0.04346696900223
  O           2.88592601608194      2.05409397680591     -0.06122004969124
  O           4.44413088476543     -0.05328238154854      0.39833141644124
  C          -0.29669463090610     -0.60629724486716      0.05077492029107
  C          -0.49756517931834      0.78049685039466     -0.01656795171479
  C          -1.61428237143592     -1.18114772615369      0.06575326022674
  C           1.00796074339503     -1.08183772173202      0.08261585878237
  C          -2.49966021452136     -0.14969589988679      0.00791433474802
  C           2.09342103601749     -0.20046258861561      0.06353395837554
  C           0.53476823569725      1.69423852417337     -0.05237686046026
  C           1.83818090200842      1.19923960748079     -0.00933988142552
  C          -3.94718101877960     -0.11688208958363     -0.00763051223084
  C           3.48194688292950     -0.74467598948850      0.14096290553887
  C          -4.63638317345965     -1.45365093322244      0.05062624750227
  C           3.67402578804597     -2.23446316972953     -0.10366257642547
  C          -4.62545645602966      1.03491800209892     -0.06981291698914
  H           2.55426128251373      2.95576335628013     -0.14796757349827
  H          -1.86771772759580     -2.22639331411019      0.11341672702609
  H           1.18630962821413     -2.14563029060723      0.13431053404090
  H           0.34287644042534      2.75847817937175     -0.11292815493059
  H          -4.36783127702979     -1.99573225172650      0.96067767020689
  H          -5.71755736094759     -1.32689817959832      0.03448784534815
  H          -4.35161614998977     -2.08086975300745     -0.79772934140272
  H           3.24882841089131     -2.82043747078153      0.71485967615717
  H           3.19608363874403     -2.56035251923112     -1.02903566139258
  H           4.74246833857325     -2.42944716171899     -0.15168411880114
  H          -5.70712482992630      1.03934816504833     -0.08023424761007
  H          -4.12042979006619      1.98939962096247     -0.11101753911044
