15
Coordinates from ORCA-job 11902 E -457.865474428524
  O          -1.26333064565019      1.00873260466170      0.12014352547552
  O           1.80792458746794     -0.78061689011882     -0.04421000272963
  O           1.48830900684269      1.44796196707283      0.16033301216685
  C          -0.37290662434991     -0.01815288749287      0.02524674732326
  C          -1.03877076841560     -1.20395761438990     -0.08502780495756
  C          -2.42458475790667     -0.88910705364291     -0.05607669171214
  C           1.04707045238962      0.33077741040686      0.05766547183286
  C          -2.49687661186657      0.46380375594274      0.06933683508603
  C           3.22473405721041     -0.55647246051798     -0.02367916769042
  H          -0.58223980096219     -2.17409167362856     -0.17489820455335
  H          -3.25462850887470     -1.57187342210795     -0.11959108554178
  H          -3.31984035600973      1.15400388389341      0.13319933447513
  H           3.52254062904331     -0.08181454795000      0.91088995001078
  H           3.67666447560026     -1.54031867173782     -0.11435466043204
  H           3.52243586548134      0.08097359960925     -0.85580625875352
