55
Coordinates from ORCA-job 119301 E -1507.999658167456
  O          -1.53603559094947     -0.13454700729914      0.48001683989435
  O           1.93496710984530      0.28315527735753      0.84105346063629
  O           0.73485941293437     -1.63530740137676      0.68335395097938
  O          -2.75669431916009      1.21208856105300     -0.89342539412975
  O          -2.09842007105352     -3.51766554366197      1.82049371109024
  O          -4.15081243163620     -3.22231543794483     -0.18763687734409
  O          -4.94130634783329     -0.55039258546558     -0.71634613036971
  O           2.78385208511485     -2.80436323070433     -0.87669243679645
  O           4.35858090988909     -0.89236628856965     -2.24259116701570
  O           5.05552254739922      1.45631107587974     -0.72248894876563
  O           2.41836062258329      2.62338054244092      2.46336965067847
  N           0.48151324688173      2.09329221128354     -1.44207740798837
  C          -1.46567677518906     -1.16465221362004      1.45527021154025
  C          -2.10570891053775     -2.43483387675482      0.89054135198609
  C          -3.53107579099437     -2.12311081103964      0.46250762667776
  C          -3.59917455360016     -0.93890963809877     -0.48952215605166
  C           2.59400596453267     -1.40709465807637     -0.74438513725670
  C           2.01908170239512     -1.11552507285689      0.63543607554036
  C           3.91129066437011     -0.66551311921144     -0.91389669588464
  C           3.78210806848426      0.81698440122062     -0.59893248803350
  C          -2.84294803927569      0.24502339608727      0.10405829490293
  C           3.16077698892051      0.98572034572758      0.79148310668321
  C          -0.01226936601583     -1.32886569073241      1.84979413143726
  C           2.87151391783171      2.43872893495373      1.12691698744301
  C          -2.01054844279935      2.41262257659764     -0.66071596527270
  C          -2.05309964767394      2.90808274864058      0.78646559529719
  C          -2.62256812313722      3.44231290803208     -1.61442560209617
  C          -0.60267463627571      2.19094514726933     -1.07370823252148
  H          -2.56506840832039     -3.24255855282974      2.62033973139052
  H          -3.93901898801431     -4.01706309101559      0.31826997018923
  H          -5.42255994105529     -1.33980358119260     -0.99324100917690
  H           3.23980783567174     -2.94919230134812     -1.71478557765263
  H           5.07296232843834     -0.26756561810157     -2.41968495115802
  H           5.65229562702259      1.07946038240964     -0.06296511089437
  H           3.14786404123085      2.44222379029108      3.06566387554542
  H          -2.02270143159110     -0.86431863458907      2.36074053481014
  H          -1.51913117115655     -2.77728360424767      0.03793914111188
  H          -4.10716308143369     -1.85817314325468      1.36584007881057
  H          -3.10051457351509     -1.20699484218300     -1.42804399034674
  H           1.87404628503771     -1.03097643544771     -1.47992139417105
  H           2.65853300791016     -1.56076847365098      1.41920337129696
  H           4.63466872555710     -1.10347348988410     -0.20430192706101
  H           3.13549813332675      1.29722572727783     -1.33470756775601
  H          -3.38285517228175      0.63018380553406      0.98330514474280
  H           3.86034174568523      0.57154343323697      1.54335410972191
  H           0.07414888683717     -2.14163379635069      2.57925373473958
  H           0.33741583057044     -0.39756705925153      2.29421142724188
  H           2.06748097157990      2.78454158855590      0.47960606961795
  H           3.76581804519882      3.03440251315452      0.92031295786748
  H          -1.56583435103386      2.20929804452791      1.46231703832483
  H          -1.53402636810287      3.86361275932267      0.85349430649702
  H          -3.09066333773256      3.05574946438467      1.08779998177561
  H          -2.05455335059950      4.37187636586411     -1.59056287258932
  H          -2.62352705053576      3.05166239367121     -2.63062718349986
  H          -3.65073243374468      3.63487080398554     -1.30887024463818
