81
Coordinates from ORCA-job 119444 E -1733.191854104332
  O           0.55590910865087      0.48035507731111      1.13424369438180
  O          -2.22386294705316     -2.22162672373208     -2.15805708098409
  O          -4.66366542006373     -1.13869176322299     -2.09296167661859
  O           6.06989713180814      3.49455150541449     -0.44066173325388
  O           5.07902660418157     -2.52194727169331      2.05915350131083
  O           7.31392096734927      1.63348965316711      1.13291681342509
  O          -6.79811817273229      2.06411032429499      1.54051713612876
  O          -7.57993785523502      0.44634242594073      2.87485246904574
  C           0.25507809700255     -0.66692344178852     -0.96298505781425
  C           0.86689445849905     -0.77099963585314      0.45929153287157
  C          -1.25922298276751     -0.64395441735669     -0.60171941470502
  C           3.06488232440898      0.23130849041887     -0.35494529981406
  C           4.59013278195447     -0.03415319538584     -0.52814684040037
  C           0.82443373256006      0.59899828302545     -1.61348486663729
  C           2.37235380739154     -0.85527615221580      0.44581211276084
  C           0.05261760298646     -1.87833390869280      1.11792606938000
  C          -1.37834337066697     -1.64335076182533      0.58534524992565
  C           2.35300760010002      0.53942755950965     -1.69223035084846
  C          -2.32149733370329     -0.87058455397769     -1.69436296471476
  C           5.19713250655845     -0.47841975711582      0.82164262142393
  C           0.64414147931111     -1.91184539118554     -1.77868029180043
  C           5.33305422379427      1.23601891569387     -0.98820943954519
  C           3.03535013339957     -1.73701190681126      1.20602496630227
  C           5.19595637734145      0.64516528374516      1.87312598891285
  C           4.85638615104858     -1.14432538865620     -1.55788865328882
  C           4.48839978940782     -1.68601257390437      1.39882144522219
  C           5.35266609625850      2.36696350619874      0.03964761074073
  C          -3.73697212475028     -0.72846899838316     -1.07039503392990
  C           5.92286396546589      1.88932873069374      1.37346642094582
  C          -2.16483171356357      0.07899659151389     -2.88564831380243
  C          -4.08819398259194      0.66196171336855     -0.55167203017614
  C          -5.50213290981651      0.78875441726054      0.00961864443029
  C          -5.83639377372042     -0.06910631759452      1.23665976993842
  C          -5.79501786528231      2.21411735237806      0.50511709865622
  C          -6.84078570836729      0.79199110288977      1.99924329381630
  C          -6.39081877127552     -1.46759244033958      0.98906072222095
  C          -6.31010930821298      3.17388993375827     -0.54199230575923
  H           0.83049478360695      0.38014124350701      2.05298369933062
  H          -3.05183381605534     -2.40117203343891     -2.62367959476935
  H          -5.43251907749618     -1.53909271193538     -1.67598237164484
  H           7.00835490383596      3.27977311967964     -0.35481206279019
  H           7.75721048214657      1.48207102917596      1.97361435300812
  H          -1.43848495626113      0.35849379246886     -0.21633523945139
  H           2.94361401463397      1.13291910427699      0.25338596901938
  H           0.43583140047160      0.71930972003821     -2.62385474966367
  H           0.50945510391019      1.47176198572366     -1.04034631277479
  H           0.42552459217387     -2.85713990754757      0.81955294746815
  H           0.11295034130088     -1.82968779458141      2.20644547493137
  H          -2.02200360328577     -1.23758932775983      1.36614205578586
  H          -1.82067619760096     -2.57897792503452      0.24863873254563
  H           2.72437038658513      1.49372621525853     -2.06746515558291
  H           2.63284559583270     -0.20721950504315     -2.43331471126515
  H           6.23573128872272     -0.76919303657045      0.65689280302430
  H           0.13057119875175     -2.80440814259109     -1.43323148340604
  H           0.36918233383766     -1.77874928127459     -2.82374292474637
  H           1.71640618127538     -2.10021407970390     -1.73213194064973
  H           6.36875895322964      0.96367692710503     -1.20708837134034
  H           4.90886732627418      1.61765446099809     -1.91761612669588
  H           2.51721074704173     -2.50495256905032      1.76672113063698
  H           4.17273087293187      0.92154258007340      2.14396999645117
  H           5.67066943909244      0.27952419045836      2.78744821793317
  H           4.27371383930341     -2.04360482819394     -1.35400902851779
  H           4.62896633115341     -0.81597100792704     -2.57158926265625
  H           5.91172695932438     -1.42079584897360     -1.53357487700101
  H           4.33752576022655      2.72711632121067      0.22145710732100
  H          -3.78574973743899     -1.44705788102045     -0.25112942595608
  H           5.82469874931482      2.70035776901231      2.10390855304937
  H          -2.03541096039852      1.11454978512704     -2.56992991111401
  H          -1.29653797652905     -0.21240882682931     -3.47131518595783
  H          -3.04225531162289      0.01964183099221     -3.53004987230715
  H          -3.37749625352558      0.93729356381740      0.23158921761718
  H          -3.96601287617145      1.38241226384069     -1.36336599872548
  H          -6.22409788045870      0.55803784229135     -0.78066034734564
  H          -4.95256067889164     -0.14048182791018      1.88354291207191
  H          -4.90371035119673      2.62798115760773      0.98945611614078
  H          -6.77252523551022     -1.88672378064994      1.91967104165474
  H          -7.22099895831713     -1.43292935995987      0.27931980299600
  H          -5.62723189552835     -2.14431290752543      0.60418755488410
  H          -6.51976664271340      4.14975028455318     -0.10393966602241
  H          -5.56543543638849      3.30484446513180     -1.32920623461978
  H          -7.22747243926309      2.78971266432441     -0.99096063861308
