27
Coordinates from ORCA-job 119586 E -802.206582181154
  O          -2.97607110225385     -1.91121469662770     -0.05804712387401
  O           2.90223442199731      0.45053588051383      0.07678285205961
  O          -1.02436036430269      2.24253518730796      0.31090517043901
  O           1.76716344615319      2.32871465977669      0.24654275991083
  C           0.47433114603568      0.32170163436921      0.04125447481172
  C           0.59500952004895     -1.09650561556186     -0.09295741831069
  C          -1.92187107684711      0.08503009343538      0.09559182075941
  C          -0.80372617620637      0.91580237057851      0.13057615336462
  C          -1.75833283161287     -1.30234393561998     -0.04134376680162
  C          -0.53250519699380     -1.91984793450783     -0.14265311538366
  C           1.91201072839625     -1.66995140167617     -0.16056744713546
  C           1.69179951763752      1.13505866115856      0.13029780963961
  C          -3.34249242698528      0.30944774174104      0.16905157089951
  C           3.00312915440615     -0.89871583507396     -0.07111532483255
  C          -3.91471191916635     -0.90790680509184      0.07323512830512
  C           4.41994943873356     -1.34888649139932     -0.11040525371521
  C          -0.88197330708227      3.07863639777515     -0.84397655778371
  H          -0.43888805338444     -2.99170074751185     -0.24502076992470
  H           2.02258172323942     -2.73867891558449     -0.27339333049404
  H          -3.84680763459388      1.25265441464135      0.28600796538063
  H          -4.93840743331291     -1.23850007159338      0.08168806574798
  H           4.93495561913739     -1.06305278916518      0.80989880887410
  H           4.47618532536423     -2.42954618579571     -0.22812758687258
  H           4.94820783147188     -0.87164481485165     -0.93930623273075
  H          -1.13560235926257      4.08397030822743     -0.51636221480392
  H           0.14244240535471      3.06625590608836     -1.21148042405301
  H          -1.57714439597184      2.75786198444744     -1.62545901347623
