80
Coordinates from ORCA-job 11975273 E -1172.985375836424
  C           0.52037107769490      2.29955653249859     -0.35118844838819
  C           5.48893588099872     -0.40931734996869     -0.83439380585855
  C           2.62585185110267      0.98852933221512      2.66117357599385
  C           4.14904934413616      1.18668509091754      2.46926116283558
  C          -1.01182078719147      2.45101007028768     -0.30140021103359
  C           4.59372698229831     -0.54203889015313     -2.08829437913486
  C           1.18130719568839      2.28029602257258      1.00273835457278
  C           5.02468111263651      0.63877516307487      0.14366961712730
  C           1.86709657379745      1.20250271911539      1.38699563171513
  C           4.70288700330449      0.30173751088138      1.39410812105914
  C          -2.58856219851190      1.40590240674121     -1.99140600467364
  C           2.57994516287633     -1.97566656912140     -1.50649378736244
  C          -3.25632884546897      0.48417662381699     -1.00229201958376
  C           1.11182519619517     -2.07655876331546     -1.17905357471382
  C          -1.63092274528142      2.27149936694755     -1.65304307220032
  C           3.14691962832186     -0.79719170247470     -1.77191923815911
  C          -4.49348555821252      1.13786020838774     -0.34495817324480
  C           0.82357948968861     -2.51676858780647      0.27104316988760
  C           1.01790355489979      3.52192547608804      1.83334770463639
  C           4.92414266852981      2.03397615305625     -0.40704121337436
  C          -3.11452743172754      1.33220363820548     -3.39769576653379
  C           3.33963499633147     -3.27412742977764     -1.50163890373228
  C          -5.12847566022251      0.26040245811807      0.69271662466945
  C          -0.62033751224091     -2.84560691437910      0.49253823417944
  C          -6.09850348918888     -0.63749045562427      0.50916876496676
  C          -1.49897968434797     -2.24736008889273      1.29931788634380
  C          -6.75287741670172     -0.90721364956945     -0.81600178260490
  C          -6.59843660443110     -1.48650613649236      1.64377233960145
  C          -1.18895997426057     -1.06248617293392      2.17096245392219
  C          -2.91164144913712     -2.75122910177442      1.40769103623731
  H           0.75858499181896      1.37449716739679     -0.87867885528137
  H           0.93158536972989      3.12057516206230     -0.95233858808239
  H           5.53504339617796     -1.37635764475694     -0.32970014429665
  H           6.50575985554708     -0.17122000986570     -1.17025413082186
  H           2.44860259746876     -0.03411764073110      3.01135468669320
  H           2.27869674903971      1.65139874382350      3.45525620019134
  H           4.33277135464732      2.23826169152377      2.24583155602900
  H           4.64973222652755      0.97049990608100      3.41853854809628
  H          -1.41420478842644      1.73161519845756      0.41275288850724
  H          -1.26302448931462      3.44457150145144      0.08570706878969
  H           4.67282090880831      0.37071429005772     -2.68318956665684
  H           5.00191520383018     -1.34296978564093     -2.70917145666187
  H           1.94458404364625      0.38862808812546      0.67510685273180
  H           4.78892878007770     -0.74857432255628      1.66394799244420
  H          -3.57447209767289     -0.43263833081947     -1.50580463393349
  H          -2.55933534130488      0.17428647158703     -0.22394083690448
  H           0.61920849010558     -1.11899513015586     -1.36061649002408
  H           0.64404252905132     -2.80159143660466     -1.85625483420675
  H          -1.23126690357726      2.91764835039431     -2.43224336354718
  H           2.51130185115254      0.08183141340922     -1.73177794072066
  H          -4.17718750060856      2.07574077911820      0.11797055874106
  H          -5.20931572492185      1.40880077945812     -1.12354321713928
  H           1.41643717396786     -3.41014624574035      0.49293023657890
  H           1.17033246145146     -1.74177569701725      0.95444675799275
  H           1.61089216633247      3.49814636983340      2.74533155523290
  H           1.31716161802904      4.40474503834792      1.25942738051314
  H          -0.02711880741415      3.67508709290783      2.11771118945983
  H           4.78940773604725      2.78467881695441      0.36791079070425
  H           5.82103683116228      2.28827030819170     -0.97965946786350
  H           4.07512586908500      2.12048989423377     -1.09127962093331
  H          -4.19586438184160      1.50155489771047     -3.42421241839443
  H          -2.64065908058492      2.06905815863577     -4.04674941440034
  H          -2.94406258605647      0.33828340582145     -3.82362029701494
  H           3.47499758850629     -3.64918104799245     -0.48315968710944
  H           2.78973183063700     -4.04514996474763     -2.04926668539411
  H           4.32848293011267     -3.18059449210298     -1.94703502068021
  H          -4.71208223765144      0.34705144946977      1.69318963302285
  H          -0.97982591656392     -3.69294330797285     -0.08848716405089
  H          -7.83750273568875     -0.77849395170612     -0.74522292809763
  H          -6.38502774579131     -0.26260663172878     -1.61171051444823
  H          -6.58231248209029     -1.94537589873793     -1.11905860830014
  H          -7.67507815033407     -1.35240884425074      1.78974843147627
  H          -6.44133615377683     -2.54964468297186      1.43300921882097
  H          -6.09326619281981     -1.24760845339129      2.57965598698571
  H          -1.21625280816485     -1.34595646105027      3.22858074996824
  H          -0.22088254760919     -0.61264528150941      1.96410264098643
  H          -1.95031384146321     -0.28749866911072      2.04190717735053
  H          -3.15412977553102     -3.00763781985310      2.44459631662169
  H          -3.62656821583397     -1.98424126761969      1.09952956176284
  H          -3.07143140949416     -3.63701791705927      0.79215160811323
