71
Coordinates from ORCA-job 11972394 E -1838.462903846687
  O          -3.55077980693060     -1.22707285901228     -1.72818163641162
  O          -6.08039456001360     -3.07950795970540      0.43976995895220
  O           3.04562085492661      0.39259674808383     -0.11769096512013
  O           3.73985029897740     -1.54663928229819      0.86114362337640
  O           6.44648869604197      2.43476540176922      0.81811849597169
  O           4.11504003832492      3.86059853398021      0.02758192752966
  O           5.98897740982397     -0.12631492793095      2.02378505064262
  O           2.72245431537524     -2.45909399162430     -1.44247211421974
  O           0.65185128146364      1.71624446287998     -1.02026584243171
  O          -1.77992266482476      3.37266185953228     -1.12565772241714
  O          -2.60779073284886      4.27898945528784      1.22104372602870
  C          -3.90101201355140     -1.95682822329289      0.45775934663044
  C          -2.38997560472054     -2.05958736125860      0.18380616518188
  C          -4.27845367168957     -0.86088522545129     -0.55266475553548
  C          -2.32171551842052     -1.85776352370637     -1.33955342064519
  C          -1.64581284024236     -3.29544661184989      0.71189707082275
  C          -4.68298822857787     -3.24088762704004      0.20411018449938
  C          -3.90274457017177      0.53326844195209     -0.07748273979832
  C          -0.16665432343513     -3.01204780807276      0.78847480781856
  C           5.14755631128731      1.88345143064329      0.97622711524981
  C           4.26077289344812      2.45618718941204     -0.11852190322072
  C           5.18138916674259      0.35677739867194      0.95625739928329
  C           2.88010544400968      1.80441913870906     -0.04286958714076
  C           3.74725805116051     -0.15489228078734      0.97296344101606
  C          -3.06063521014940      1.32537735469641     -0.85438922534624
  C          -4.34856589032465      1.03199563040251      1.13990392397952
  C           0.61058791838580     -3.00042648754105     -0.37122854164583
  C           0.40999795637542     -2.62126744602767      1.98928141401612
  C           2.46509913543836     -2.08727815990656      0.85704825632768
  C           1.96864175398134      2.21871244171837     -1.18349619851804
  C           1.92181918787347     -2.53529054895762     -0.35570035401150
  C           1.72479309868912     -2.16725037321528      2.01881013592202
  C          -2.63835734358344      2.57295829476583     -0.42059999962401
  C          -3.93153713455780      2.28250178693586      1.58322091996937
  C          -3.06675438623280      3.05640338170209      0.82254588410210
  C           2.15972083078301     -2.75014494011488     -2.70886443426321
  C          -1.72945036257816      3.18723894705465     -2.53994154054189
  H          -6.21476599156809     -2.91099958119960      1.37882470350425
  H           7.03522665096411      1.96164880864704      1.42018478950488
  H           5.00051475301278      4.23162102461821      0.12697726656661
  H           5.47915399064615     -0.09947771568513      2.84260881574474
  H           0.06540534628525      2.42497700443947     -0.72563446432104
  H          -2.97689802371894      4.48547792742578      2.08688599757973
  H          -4.07738244880529     -1.63429473801776      1.48705054489770
  H          -1.93442772425307     -1.18706204710206      0.65611097195537
  H          -5.33822384147411     -0.90466027546213     -0.80905297478197
  H          -2.25257791013568     -2.80983639340408     -1.87456453593542
  H          -1.47381671148498     -1.23382046321158     -1.62966987155782
  H          -2.01324159234481     -3.53923862455979      1.71136152535187
  H          -1.84776571319277     -4.16171851799054      0.07607060838999
  H          -4.28390704013366     -4.05547269659732      0.81795189255955
  H          -4.59723754635494     -3.53863345686315     -0.84139701237340
  H           4.72683327529441      2.20496145350100      1.94260222843737
  H           4.71048442041206      2.21514691934774     -1.09098982126465
  H           5.65467849390630      0.00424646839448      0.03875613911318
  H           2.40477129124280      2.07696527072197      0.91017830346192
  H           3.24303617258725      0.15069078160095      1.90923060261851
  H          -2.72354787765611      0.93891710984365     -1.80302299163585
  H          -5.02202743949394      0.45174146273953      1.75781754152455
  H           0.16737099936850     -3.31990423046433     -1.30288205185289
  H          -0.17323068831883     -2.64155347107727      2.90130485661178
  H           2.37344643443250      1.80275402065604     -2.11066429676320
  H           1.98109345114537      3.30801776955116     -1.26033172561597
  H           2.17544403107477     -1.84290068837407      2.94832030572664
  H          -4.28155695541139      2.66482164370880      2.53635529093913
  H           1.83457694962685     -3.79306465739790     -2.77477253877820
  H           1.31370317226092     -2.09143313662836     -2.92557670878869
  H           2.95096106189328     -2.57493154959985     -3.43384377438319
  H          -1.21768166020260      2.25977334427951     -2.80155111761491
  H          -2.73697374883296      3.19097474461788     -2.96200587199293
  H          -1.16319136102634      4.03089322913760     -2.92841149325641
