47
Coordinates from ORCA-job 119908 E -740.016583094732
  O           6.52412217963667     -0.45587877782040     -0.00838648210466
  O           5.50546485138248      1.54982664115459     -0.00508184439176
  C          -2.19869443333911      0.35988353914826     -0.01202793347536
  C          -3.47352119593880     -0.47956805333775      0.01426522307286
  C          -0.91972825488900     -0.47318238766545      0.01618208417430
  C          -4.75242966346925      0.35365786250673     -0.01345227993415
  C           0.35452238097299      0.36694828413007     -0.01035978482884
  C          -6.02729258457679     -0.48585771266365      0.01287637070179
  C           1.63303005469310     -0.46663358704201      0.01777067831450
  C          -7.30639450416086      0.34690760224797     -0.01497863731320
  C           2.90281573338103      0.37992847273031     -0.00873805017600
  C          -8.58232993538556     -0.49192760440013      0.01108739316060
  C           4.16799421182189     -0.46681862040771      0.01858289316071
  C          -9.85470447240238      0.35096651053991     -0.01575002418563
  C           5.44025685858746      0.34654959903833     -0.00004825520950
  C           7.80925710675806      0.20303693746318     -0.02062153898706
  C           8.87289419601430     -0.87019428859598     -0.02848586769680
  H          -2.19951283276225      0.99054228020049     -0.90844916539024
  H          -2.20083768701703      1.04765759811857      0.84134994914354
  H          -3.47136380822811     -1.16702025553347     -0.83946169268975
  H          -3.47261415947380     -1.11050095781716      0.91058121608303
  H          -0.91880213462669     -1.10374023234327      0.91277870900853
  H          -0.91746220694900     -1.16099753602764     -0.83729084826020
  H          -4.75453390391165      1.04121073138983      0.84012550150138
  H          -4.75352548042165      0.98457777806372     -0.90972169278912
  H           0.35443639395927      0.99749270215105     -0.90660302397716
  H           0.35322043124045      1.05459236592376      0.84285555242097
  H          -6.02496859379148     -1.17346550962602     -0.84073507927273
  H          -6.02625549778497     -1.11663920008228      0.90931276423052
  H           1.63322351631242     -1.09747871978516      0.91436927760594
  H           1.63442832036295     -1.15462467138046     -0.83576639331713
  H          -7.30951986220095      1.03465747264790      0.83869752514187
  H          -7.30819605224919      0.97806746243581     -0.91132612286952
  H           2.91028169626088      1.01098547023436     -0.90127952295117
  H           2.91030798020388      1.06670211417200      0.84143433826824
  H          -8.57887135570580     -1.17790516469370     -0.84271833818177
  H          -8.57947499950390     -1.12253498847426      0.90658916592309
  H           4.19652439905347     -1.10242144868761      0.90935466824918
  H           4.20119763361125     -1.15570143386206     -0.83098438474122
  H          -9.89910550795635      1.02230609391639      0.84568956994639
  H          -9.89789255437468      0.96848667585344     -0.91658973519653
  H         -10.75009637392606     -0.27362766502274      0.00291775240004
  H           7.86618943950797      0.84278756475978     -0.90279370505034
  H           7.88173046848376      0.84530993713206      0.85859989785048
  H           8.79611219494147     -1.50193962608103      0.85761604939479
  H           8.78172645334780     -1.50335421603573     -0.91219315737712
  H           9.86222255451177     -0.40884403857281     -0.03685601938579
