25
Coordinates from ORCA-job 1201528 E -464.589942491007
  O          -2.95779747098077     -1.18455885521579     -0.21584971283459
  C           1.19177388990173     -0.58077209058380      0.28293733192933
  C           1.50558566285620      0.80839757561177     -0.37475127283430
  C          -0.08626493682946     -0.57075875238670     -0.63780654534982
  C           0.72977937981573      0.31400670928593     -1.62296289985825
  C           0.69556533283504      1.93020511432296      0.29079576395689
  C          -1.13333812741835      0.32435552041011     -0.03012851365875
  C           1.01856833211416     -0.66138490558260      1.79277049133853
  C           2.19061174267374     -1.65648784773472     -0.14417370242220
  C          -0.74978157527074      1.53674809087764      0.39562185405510
  C          -2.52785864624320     -0.09851714254038      0.10556478594461
  H           2.55541453295735      1.08455355986720     -0.48723602505267
  H          -0.49877643879095     -1.52022363611736     -0.97150207901194
  H           0.16662823032259      1.05636443785549     -2.18833122631003
  H           1.34758164312298     -0.26314263732789     -2.30448836299816
  H           1.08611989656494      2.16238761236549      1.28845162256126
  H           0.78737532642385      2.85854320475158     -0.28485490304629
  H           1.97617543042837     -0.48742591389198      2.29088120545726
  H           0.30138132984582      0.05690448901633      2.18422179136460
  H           0.67475381295593     -1.65817642705196      2.07969164752467
  H           3.14983571457641     -1.49992197568077      0.35600607763668
  H           1.82473093987417     -2.64512474308420      0.14265968056740
  H           2.37544062319057     -1.67097545118084     -1.21699318904704
  H          -1.46344470006755      2.22822897233338      0.83220389791023
  H          -3.19875592485856      0.66965609168111      0.54487528217746
