29
Coordinates from ORCA-job 1201518 E -467.037304974587
  O          -2.58544705552371      0.54060956523132     -0.28966035753468
  C          -0.16018086024138      0.72721858178307      0.34617850977552
  C           1.09881278881642      0.01260200395477     -0.25471289276774
  C           0.40531450713641     -1.37864683323990     -0.29002356761554
  C          -1.23975366384385      0.35696655934984     -0.70809723375173
  C          -0.43792512887106     -0.13134590705720      1.60083695067555
  C          -0.86705733576678     -1.09769205386179     -1.10995021758960
  C          -0.03696387541189     -1.57089426023146      1.17295600875359
  C          -0.06915604256506      2.21383156956343      0.61797829424189
  C           1.53120417635978      0.52371914571672     -1.63388922927050
  C           2.33642615393131      0.06860022829273      0.64558831560319
  H          -2.79548453441932     -0.11388273224905      0.38496484853324
  H           1.01845119787829     -2.19227504521978     -0.67953495508081
  H          -1.14883170481028      1.03030771182483     -1.55944663350658
  H           0.15914496251823      0.22027154012435      2.44228729238550
  H          -1.47713700743233     -0.05141073811199      1.92363837351883
  H          -0.70061846792489     -1.18591892813902     -2.18339862335054
  H          -1.67544261827914     -1.78738308613775     -0.85802127354151
  H          -0.86363160944108     -2.27912252593388      1.24850149176511
  H           0.77158701893501     -1.96054483140963      1.79119995197160
  H           0.69187199537656      2.43736533432347      1.36886997473767
  H           0.17601252863452      2.77026963845936     -0.28963029249515
  H          -1.02531530790932      2.59128381136555      0.98613563470434
  H           1.89279714440036      1.55190058727153     -1.56486876587183
  H           2.35609063169378     -0.08495090584270     -2.01179551627660
  H           0.74263938692908      0.50199563193457     -2.38250230059704
  H           2.14596444618559     -0.23770725143622      1.67165366825462
  H           3.11842868650810     -0.58217935619621      0.24657352867318
  H           2.74098358713662      1.08265154587103      0.67430101565603
