13
Coordinates from ORCA-job 12025 E -286.596593795797
  O          -2.04024688248357      0.05792918441618      0.01956800891945
  N           0.01239371692975      1.09008998156592      0.08662594649164
  C           1.46495633637865     -0.73300374869491      0.17831268766145
  C           1.41753639535356      0.77980026733226     -0.11359462271138
  C           0.05208157771657     -1.22023625594745     -0.16305550032325
  C          -0.82868090093788      0.01708233090039     -0.00443255423556
  H          -0.36103155291219      2.02483021750541      0.05480009565925
  H           2.24840415258818     -1.23301391896342     -0.38893132394011
  H           1.66666487495951     -0.89014514096351      1.23897170806869
  H           1.73316304088586      0.99856256681253     -1.14052930392398
  H           2.05177048361354      1.35382767470794      0.56332764004380
  H          -0.03160842336853     -1.55140204436247     -1.20179592097594
  H          -0.31113881872346     -2.02830711430887      0.46881813926594
