19
Coordinates from ORCA-job 12101 E -386.041360244466
  O          -2.39418523658770      1.56553099608482     -0.09701642636770
  C           0.83698488369603     -0.05820611858025      0.32280333753305
  C           2.27067105820137      0.33959267825015      0.56244512644990
  C          -0.15519303146187      0.91308582837894      0.23791494327652
  C           0.49086617807324     -1.39776735884342      0.13534938360341
  C           3.02353663948002      0.61624843513100     -0.74467647707021
  C          -1.47268226438722      0.55760177141377     -0.03136665491313
  C          -0.82417508576623     -1.75009322178432     -0.13312467129463
  C          -1.81362001000953     -0.77854625661677     -0.21904309181528
  H          -3.26341877990697      1.19368117856319     -0.28369056374030
  H           2.30177133044818      1.23086260950495      1.19400373319396
  H           2.78036840543843     -0.45521160838087      1.11272325158498
  H           0.08078868438384      1.96009117296892      0.38285990884815
  H           1.25369059859042     -2.16347411502250      0.20394864180657
  H           4.05926758606689      0.90058119663119     -0.54748139178445
  H           3.02835834183180     -0.26863193931437     -1.38399030847595
  H           2.54764227485713      1.42540898507578     -1.30187178953536
  H          -1.08752401587973     -2.79087621838888     -0.27356927781134
  H          -2.84164755706809     -1.05560901507133     -0.42505267348819
