29
Coordinates from ORCA-job 121677 E -504.922378212677
  C          -1.74909194181487     -0.64710503093544     -0.02272500391447
  C          -2.47442601146203      0.56276391538870      0.60158508749715
  C          -0.23667864331092     -0.44422155982339      0.06351481689387
  C          -2.21656609232347     -1.91412258711053      0.70122672825293
  C          -2.12655516700326     -0.75698626227254     -1.51438355150409
  C           0.28947247344673      0.85784515525196     -0.05996586642684
  C          -1.90849935749535      1.88278813925354      0.17209612807137
  C          -0.61534993275678      2.00169712191714     -0.13187950789601
  C           0.65672498785844     -1.50331184671747      0.15567486696434
  C           1.67143244888594      1.04580760097313     -0.09649641041651
  C           2.56451098164053     -0.01812213343547      0.00140393678392
  C           2.03362050911439     -1.29808766577433      0.13044994516046
  C           4.05105004182728      0.21664316499680     -0.00437820399960
  H          -3.53787272703935      0.50194329475855      0.35548972366042
  H          -2.41320010974557      0.49393928720771      1.69674630348035
  H          -1.88847202798788     -1.91885826945466      1.74235164605363
  H          -3.30747703952459     -1.96604125929459      0.68766791071375
  H          -1.84381612516935     -2.81979534410737      0.22149079393524
  H          -3.20363649376743     -0.90844671354765     -1.62470469213920
  H          -1.84985690596673      0.14650961195463     -2.05819810506928
  H          -1.61208351935506     -1.60165858837554     -1.97515377959867
  H          -2.56015220070272      2.74843864792624      0.15619762762085
  H          -0.19382770798732      2.96295537005325     -0.40350909328305
  H           0.28657045565943     -2.51574646461776      0.24344994631338
  H           2.05553753054762      2.05568835541956     -0.19759219933564
  H           2.70035172426058     -2.14916999270082      0.20656879409571
  H           4.40383083326305      0.52285172850936      0.98478375647522
  H           4.59395738027854     -0.68786704902308     -0.28107117076574
  H           4.32595063663014      1.00664237358008     -0.70556942762346
