18
Coordinates from ORCA-job 12170 E -497.172521824522
  O          -1.59600527490337      0.68087363824620     -0.82249314727659
  O           1.21663313866927      0.24659226331458      0.20187264207208
  O           2.98238131348011     -0.88644398460394     -0.61145163029630
  C          -1.06001981209744     -0.36494907774367     -0.12620016282304
  C           0.33837010610136     -0.72752682867651     -0.41910266261601
  C          -1.98753079186921     -0.87135809511985      0.72681292608434
  C          -3.17200428804662     -0.09103744877835      0.55335856185575
  C          -2.87541700714774      0.83286606413967     -0.39308231264501
  C           2.53691878100109      0.04270347108876      0.01272994911091
  C           3.34810900131340      1.12030967072838      0.67896055961726
  H           0.53601697370815     -0.73689870409552     -1.49161869420838
  H           0.56286844707964     -1.71636557091492     -0.02120669162243
  H          -1.84251662268343     -1.69975138900083      1.39982888382186
  H          -4.11323487544793     -0.20579428182855      1.06343267806686
  H          -3.43654753016720      1.62741693063519     -0.85220714065921
  H           3.10935030996275      1.16360115553426      1.74234286010258
  H           4.40603195562950      0.91569394698114      0.54031096486959
  H           3.09615117541767      2.09050924009397      0.24807041654574
