50
Coordinates from ORCA-job 122159 E -1190.563275352096
  O           0.16818999776949     -1.00416658213310     -1.73782893066186
  O           0.57937930340823      0.45751285290623      0.72579502004626
  O           4.60321649202439      0.59683556078463     -1.86466688344410
  O          -3.63799027408006      2.02654607238802     -0.69973670904316
  O          -5.40175504632179      0.58831824790711      0.98828271306515
  C           0.48280243512229     -1.98935029356144      0.40484073407435
  C           1.31838536377721     -0.69901973404739      0.27195874920962
  C          -0.54288803278417     -1.78864734533661     -0.74073683355470
  C           1.32601283597102     -0.55011725331839     -1.22542760089474
  C           2.69117150691305     -0.66574311924219      0.86673243155659
  C           1.32039688221816     -3.25090573706317      0.20883406861013
  C          -1.83978210362904     -1.13547239869573     -0.33239709120893
  C           2.35641162473540     -0.07843103700742     -1.93233799183082
  C           3.74598544438898     -0.20325100800517      0.19316106022260
  C           3.62918378478783      0.17371419925350     -1.26108833572308
  C          -2.16746326018171      0.15817660271567     -0.71695686473745
  C          -2.72094198317370     -1.84320913951781      0.48271594486104
  C           5.09227990461020      0.01381585900347      0.83330402240070
  C           0.12577168948388      0.45417639930271      2.06814719592230
  C          -3.34954796409028      0.74823943721752     -0.28951968924163
  C          -3.90958528729213     -1.26428314509760      0.90533332508387
  C          -4.23811018818457      0.03077070091120      0.52256817879089
  C           5.22997836619441      1.43075017887599      1.32769138209901
  C           6.02838131192110      2.34388357399609      0.79374683662319
  C          -3.52341708483073      3.01965815190916      0.32346529180827
  C          -6.39723031492621      0.84436202386932     -0.00840840380025
  H          -0.02525112732242     -2.03214340956225      1.36576430516815
  H          -0.76027047951428     -2.74370229444819     -1.22339669069394
  H           2.78987233147493     -0.93904975802242      1.91204747938285
  H           2.06301177404858     -3.35786055792166      0.99964459678008
  H           0.68189812193419     -4.13578271598621      0.22299567217106
  H           1.85107389483688     -3.23143829235159     -0.74503685183293
  H           2.32030787731505      0.03695317497692     -3.00674327802313
  H          -1.49654831143338      0.73640455623727     -1.33454504137363
  H          -2.48516411409265     -2.85646900153927      0.78746068993848
  H           5.20212483868834     -0.67863985543865      1.67258460562034
  H           5.87627589702618     -0.19605064514206      0.10642791695090
  H          -0.19048191146633      1.47461307515580      2.27808727650074
  H          -0.73210592082256     -0.20981627113994      2.20943882491344
  H           0.91630243988451      0.18287879068292      2.77400725975058
  H          -4.60404851235836     -1.80581939209058      1.53428008474549
  H           4.59270942917621      1.69693087202242      2.16725345536634
  H           6.07490246711421      3.35221892170158      1.18569428649034
  H           6.64837341694235      2.11652887029300     -0.06508305686860
  H          -4.19673921030309      2.80689758075259      1.15618562913115
  H          -2.49278775865933      3.07143723569963      0.68641818407662
  H          -3.79316602503749      3.96758374104730     -0.13769682312826
  H          -7.24404920698370      1.28469279442205      0.51411333457845
  H          -6.02781421363149      1.53444589901821     -0.76802785566989
  H          -6.70720410064764     -0.09151838638147     -0.48230962420787
