26
Coordinates from ORCA-job 12263096 E -315.626092738569
  C           1.12416467932318      0.16429140682688      0.19962358291892
  C          -0.17767339923519     -0.47586877880224     -0.30070988546920
  C          -1.46308571962368      0.19344589260676      0.18126323357135
  C           2.32397564330362     -0.71251878885048     -0.18666675644368
  C           1.28407807151540      1.59947037142157     -0.30675075208932
  C          -2.72445478951941     -0.55390519357946     -0.24800145003612
  C           3.65723707617373     -0.28236956024085      0.42135855168632
  C          -4.00982664116553      0.11843436271201      0.22709568644616
  H           1.07796894394112      0.19486378413994      1.29664783536360
  H          -0.16667373561952     -0.49183424956838     -1.39757163319389
  H          -0.19182390733277     -1.52453957091487      0.01628453886733
  H          -1.44350747249440      0.26823950718556      1.27510313189976
  H          -1.51786747854626      1.21999793933452     -0.19300083102743
  H           2.11114012086382     -1.74144825859731      0.12016431877314
  H           2.40838603825240     -0.73330092086816     -1.27945842025213
  H           2.19704065748218      2.06076803887060      0.07120054718744
  H           1.32853205202113      1.61634895087585     -1.40018436193240
  H           0.45086433480568      2.23099891837728      0.00279059789788
  H          -2.73721071395982     -0.63877209197244     -1.33990248056607
  H          -2.68347762817130     -1.57905303949840      0.13511860664176
  H           3.59048715642654     -0.22712424189514      1.51127133841135
  H           4.44675098273189     -0.99470885731873      0.17368735302729
  H           3.97615021664417      0.69612953737376      0.05893693225390
  H          -4.03606746079557      0.18907823945718      1.31755793520202
  H          -4.09255138855819      1.13324325296675     -0.17043282229939
  H          -4.89433963846322     -0.43677265004221     -0.09162779683857
