32
Coordinates from ORCA-job 122841 E -767.716832018470
  O           3.73060819459678     -0.27358813220419     -0.61024944346228
  O          -0.51565188152120     -2.06924378427649      0.49497174379852
  O          -0.16577712381242      2.54728164871928     -0.31843495117266
  O          -2.17771679487626      1.01605287417254      1.37383906920311
  C          -0.33876636608917      0.23843592403960      0.10051571471726
  C          -2.76575758868583     -0.19143571847063     -0.60687242952978
  C          -1.80698569074362      0.40449476663177      0.39994863153005
  C           1.64655909430585     -1.19583369056771     -0.06754577112887
  C           0.28314277047565     -1.01076117248889      0.16277202033107
  C          -4.22831287327581     -0.14832096602531     -0.18678580685408
  C           0.45235723674871      1.33636903824904     -0.22097135799682
  C           2.40361299093216     -0.06179109491336     -0.38790403073372
  C           1.81562380465214      1.19785051634905     -0.47190599938792
  C           2.26497598359825     -2.56319432596121      0.03963143967644
  C          -5.15436622240045     -0.73206655451155     -1.25046217639181
  C           4.55736835524290      0.83527008110037     -0.91735518609058
  H           0.01208208306669     -2.87402756680802      0.53720346237731
  H           0.48416620609690      3.22601167839671     -0.52939260390234
  H          -2.61063781710054      0.36550119445358     -1.54084906207227
  H          -2.44155448603916     -1.21343564973916     -0.82180728192962
  H          -4.34371393954205     -0.69517545245452      0.75237669691813
  H          -4.50814754366874      0.88375423680710      0.03321920825402
  H           2.39717076102669      2.07069589348554     -0.73180142482677
  H           2.14006422770400     -2.98846403775907      1.04185893849748
  H           1.82884181064416     -3.26558966963790     -0.67932941665217
  H           3.33170807540032     -2.51832630007229     -0.15996791551255
  H          -6.19736009057586     -0.69641779532505     -0.92988755856577
  H          -5.07684517992258     -0.17831837997802     -2.19000125648283
  H          -4.90735580280735     -1.77572130308966     -1.46252281972007
  H           5.56117834800710      0.43513170741814     -1.03895634098987
  H           4.24590144952151      1.31919608606435     -1.84775129596479
  H           4.55526500904124      1.56995994839596     -0.10700479593579
