20
Coordinates from ORCA-job 12299191 E -349.115267842230
  O          -3.02406208571957     -0.30482577401120     -0.25030782776637
  C          -0.62129975824032      0.26918655339263     -0.19024076803139
  C           0.36523392013714      1.32630241662170      0.31173559135756
  C          -0.17551279296281     -1.12301204602059      0.27139674692157
  C           1.77182509733111      1.08054153826121     -0.23664596004094
  C          -2.04190603880253      0.59293571438648      0.25853151356721
  C           1.30183786585345     -1.34464700968663      0.10321653579567
  C           2.16780918552931     -0.36549848346456     -0.13960920125544
  H          -2.90517711404634     -1.16317720655123      0.16891187930964
  H          -0.61085950634084      0.28108840311819     -1.28640419271348
  H           0.02272964788123      2.32687243492953      0.03453351060047
  H           0.39476938238032      1.29368795387151      1.40648795493159
  H          -0.44628529052207     -1.26640255387738      1.32802007646806
  H          -0.71794950533314     -1.89356512340537     -0.28539531021853
  H           1.82832341980917      1.40377517680524     -1.28365990896770
  H           2.49854940212695      1.69758570641125      0.30056836258975
  H          -2.33021274277580      1.57878329527453     -0.11079924222013
  H          -2.08189794709370      0.62788943977218      1.35643727406660
  H           1.65820235104335     -2.36669690004541      0.18103040206953
  H           3.21782350974508     -0.60318653578208     -0.27603543646368
