32
Coordinates from ORCA-job 12294 E -543.497903160858
  O           1.21427753812623      0.25720593659561      0.01177871335574
  O           0.07489295579302     -1.68192360030881     -0.03136446551091
  C          -2.45067139289584     -0.35622199507270      0.00067446483569
  C          -3.66663255023496      0.56588642799043      0.02186296019392
  C          -1.13641298516976      0.41232078060661      0.01675376588994
  C          -4.99435944534796     -0.18827005564538      0.00631306756628
  C           3.59086644119267      0.52303132771194      0.01606219333481
  C           2.45581324618681     -0.47776598132828     -0.00589047882708
  C           4.95800951655931     -0.15913092893479     -0.00108783960003
  C           0.08385652134973     -0.47714533347153     -0.00410770380169
  C          -6.20815952389728      0.73681174002425      0.02738281460479
  C           6.11328871177927      0.83814175228585      0.02072464817196
  H          -2.48264321628309     -1.03378483093844      0.85774222792795
  H          -2.48384684379091     -0.99528394365854     -0.88542428081716
  H          -3.62592823584865      1.20525345269931      0.91164519237869
  H          -3.62723906211435      1.24370275462534     -0.83905206794299
  H          -1.06590803462261      1.09099842380359     -0.83892602737075
  H          -1.06451136328313      1.05216697230021      0.90172513527146
  H          -5.03406429569690     -0.82622078283985     -0.88270850616402
  H          -5.03278664943150     -0.86450398088308      0.86662826354683
  H           3.49742520066990      1.18971299898420     -0.84642421723880
  H           3.49921573235384      1.14921146727048      0.90856982219301
  H           2.48477800184559     -1.14234381914673      0.86006231145544
  H           2.48343444796269     -1.10219756462900     -0.90126653133566
  H           5.03920771435011     -0.83184842523199      0.85888211971051
  H           5.03733848349152     -0.79148124122291     -0.89132706847371
  H          -6.20943504168627      1.36342877132592      0.92295130135816
  H          -6.21064654439851      1.40189507533781     -0.84000664867547
  H          -7.14210338790117      0.17160474774262      0.01567711901241
  H           6.07681306402543      1.46175520464440      0.91725665172836
  H           7.07849956173874      0.32879262941103      0.00779747714269
  H           6.07476843517802      1.50269201995244     -0.84581341392038
