29
Coordinates from ORCA-job 12302323 E -467.028789195562
  O           3.06431673786105     -0.27357919655363     -0.22248433719624
  C          -1.61563037672790     -0.14306421618975     -0.05552308480702
  C          -0.54885225701590      0.98786479624600      0.07885944805777
  C           0.28050515348134     -1.20178147880328     -0.66430099824140
  C           0.75572748392837      0.24803751994425     -0.42085862468729
  C          -1.10670738908019     -0.93714106508737     -1.27271239072295
  C          -1.44036723690892     -1.20045333020090      1.04999646918951
  C          -0.09473120593036     -1.88460296764217      0.66632674786989
  C          -0.89009198099590      2.15107359772158     -0.86043544048553
  C          -0.45901512153804      1.55844736407540      1.49914294343601
  C           1.99260342208704      0.40178158257093      0.43980121798685
  H           3.85632813776579     -0.20064449304394      0.31921787533521
  H          -2.63069204097326      0.25104211324378     -0.12412552137317
  H           0.97647344026669     -1.77634272664225     -1.27149398962000
  H           1.02545463687746      0.66316498293605     -1.39655614797860
  H          -1.68132310208225     -1.84809399392467     -1.45153479051752
  H          -1.06788234031634     -0.36293071336485     -2.19829232834695
  H          -1.43815716538163     -0.78319640378956      2.05494660776395
  H          -2.26517454221390     -1.91401688169614      1.00532249813768
  H          -0.22511755555123     -2.95757242580493      0.51830924008083
  H           0.67196606668921     -1.76398352028863      1.43137413294064
  H          -1.79275740278947      2.66921426263894     -0.52622201507829
  H          -0.07522395564269      2.87943924718802     -0.88082205868712
  H          -1.05568188384615      1.81281037363248     -1.88378303245520
  H          -0.10800767375795      0.83574577003099      2.23349258442214
  H           0.21638024184931      2.41584639116732      1.53070171565978
  H          -1.44221349953420      1.90763617662656      1.82430289031692
  H           1.84231717715869     -0.01735405578872      1.43962431814193
  H           2.22917523232134      1.46600729079849      0.56034707085817
