80
Coordinates from ORCA-job 12303666 E -1210.196920618531
  O           8.31501777628144      0.51646052105633      0.24892976457648
  C          -0.34945720336823     -0.14670876202387     -0.60461896783658
  C           0.54212816057752     -1.34623653265616     -0.11466007358023
  C           2.03072543119066     -1.13399551813316     -0.38949603769624
  C           2.59496983635234      0.10876638726254      0.31337002571439
  C          -1.39852412116896      0.06928938700342      0.55069471115167
  C           0.52266125217566      1.11007432372285     -0.81114001743712
  C           4.01701228898017      0.45043063983335     -0.21153597495688
  C           0.14320232060880     -1.60172807840405      1.34318450386678
  C           1.58967096550239      1.28228217074029      0.26879001727725
  C          -1.33383721225280     -1.22823407772319      1.37038536725683
  C           2.88641378207413     -2.34398520779089     -0.03083180270276
  C          -2.81984941164109      0.50689084308974      0.14686643958547
  C          -0.98807768467146     -0.54275160536974     -1.93948518618523
  C           4.86665070303864     -0.81796982325113     -0.26609501708225
  C           4.67897325532034      1.43061008793461      0.79025085797129
  C           4.34905392680473     -2.04075207983407     -0.15231860576785
  C           3.96915138469554      1.09198885857208     -1.61239832953845
  C           6.35108926056593     -0.62302007691279     -0.44711531749449
  C          -3.77414610509358      0.44554568435160      1.35267177226497
  C           6.16951823282419      1.66297936304893      0.54939903938386
  C           6.93417658226648      0.34656599508856      0.57185153394975
  C          -2.83986888283435      1.90783457377175     -0.47201100417376
  C          -5.22996967916669      0.84569836319335      1.07778594844763
  C          -5.93005347639321      0.06873806102447     -0.04941279940930
  C          -7.31085118117380      0.66591936997521     -0.41620800576916
  C          -5.99255874579447     -1.43190369163550      0.27740555524527
  C          -7.19215887209331      2.07592459991809     -1.00147062046531
  C          -8.31753749163721      0.64359047143342      0.73659764795381
  C          -6.59993484165910     -2.30868790585097     -0.81597037993517
  H           8.70149292147041      1.13821783363021      0.87539356719688
  H           0.23462731419714     -2.23043926116677     -0.68345835875898
  H           2.13096977857025     -0.98572629615049     -1.47011564531367
  H           2.73968140830545     -0.16618560620236      1.36300136479171
  H          -1.00208175224800      0.86328044638237      1.19531495102958
  H           1.00821679433028      1.05223326781228     -1.78915623904390
  H          -0.11178385240527      1.99665707760251     -0.84175111567518
  H           0.33006487576808     -2.62998976902584      1.65581995193854
  H           0.69857172449324     -0.95108351389456      2.02433173619852
  H           1.09875635922814      1.37119963453341      1.24053659572226
  H           2.10486726314382      2.23173566800896      0.11989202741566
  H          -1.71926606682060     -1.11142439652861      2.38279710836408
  H          -1.92768709773715     -2.01042262446538      0.88329665393409
  H           2.66294967147608     -2.67487865052064      0.99101280278937
  H           2.63069489194577     -3.19067499423122     -0.67727483902443
  H          -3.18707706662840     -0.20240196044406     -0.60047902723734
  H          -1.66126166442748     -1.39464438979535     -1.82419184202201
  H          -1.54938665815697      0.27216714484174     -2.39761002932274
  H          -0.20611106873902     -0.83694900880824     -2.64427440203428
  H           4.15008657586145      2.38570863150568      0.76997391933767
  H           4.54634761752268      1.02306876856927      1.79777387700673
  H           5.02487938934813     -2.89146993560106     -0.16292006545335
  H           3.42923557677576      2.03974555754214     -1.59426929915560
  H           4.96919693546791      1.29488684362961     -1.99217756592811
  H           3.48033004554085      0.43249650017552     -2.32917239061537
  H           6.86868726443551     -1.58077300053839     -0.38033528036026
  H           6.56622613592777     -0.21502519481410     -1.44092067776160
  H          -3.75922205898790     -0.56088099758163      1.76979929533996
  H          -3.38203365349413      1.10068677979121      2.13954642191505
  H           6.34353015106254      2.14858658640508     -0.41443640736952
  H           6.56405223775399      2.33626188353430      1.31799692840353
  H           6.84145520296315     -0.10091642156285      1.57221062160854
  H          -2.50401261527626      2.65144265497497      0.25683446075232
  H          -2.19375995699600      1.98506968746673     -1.34380267914857
  H          -3.84384871736691      2.18837768797825     -0.79041601099457
  H          -5.79267255219763      0.70777734467911      2.00583695688952
  H          -5.27223786171049      1.91388888162442      0.86133016143693
  H          -5.32013867840772      0.16822301171355     -0.95532032686274
  H          -7.71643870405511      0.03636916600398     -1.21354902977905
  H          -4.97672306094151     -1.78283292474200      0.47213869864563
  H          -6.54001073424451     -1.57892461218450      1.21400124761704
  H          -6.88027421755524      2.80485752485425     -0.25081439579349
  H          -6.46749662353190      2.10505635535046     -1.81878852588414
  H          -8.15412632594130      2.40965960472464     -1.39672572866492
  H          -8.00292478904276      1.29523366092539      1.55450921733468
  H          -9.29411216588982      0.99491493447497      0.39642526705176
  H          -8.45223821942637     -0.36049018137495      1.14231251135307
  H          -6.48445238079757     -3.36672313196842     -0.57233806405628
  H          -7.66590805467214     -2.12093634723780     -0.95249265979224
  H          -6.10763678820088     -2.13432926133088     -1.77669078263541
