39
Coordinates from ORCA-job 12309449 E -585.878644362966
  C           1.22381011586911      0.76715651802044     -0.00205725666523
  C           0.62480646469263     -0.62141399631120     -0.42648024956519
  C           0.26565398195377      1.85157871478327     -0.55267188102260
  C          -1.14127817177676      1.75199603578922      0.02307828396032
  C          -1.67578136521292      0.34578857739250      0.01200398884716
  C          -0.86394339382448     -0.69056183195984     -0.18267290230627
  C           1.33094996376876      0.89161277556476      1.51795525148761
  C          -3.16971945146357      0.20879130719231      0.22658901443551
  C           2.54869383301433      0.98502236533590     -0.68724508791495
  C           1.35711435145540     -1.81042648993062      0.17584754924407
  C          -3.93773507767276      0.55883516913427     -1.05863250287914
  C          -3.61228189991893     -1.15647091279380      0.75102024807464
  C           2.57191031816861     -2.29579303452652     -0.56380270350417
  C           3.70033237012605      1.34162555993548     -0.13291183101490
  C           0.94305756915105     -2.40687687363185      1.29118111943359
  H           0.77646392915546     -0.68837838101294     -1.51277520122896
  H           0.69231564667727      2.83600588972717     -0.34704934434821
  H           0.21597817296656      1.74915862447681     -1.64106871647017
  H          -1.16478911547161      2.13329430947955      1.05106520140200
  H          -1.81051404638785      2.40767506297263     -0.54153228711348
  H          -1.27248565653010     -1.69325093795445     -0.18579770066344
  H           0.38553717595277      0.63877719377486      1.99557834929925
  H           2.08734589687223      0.21972629903433      1.91944259754390
  H           1.59155183911763      1.91388857120456      1.79883277542818
  H          -3.44327766978613      0.95658838208373      0.98233864175129
  H           2.51309683684074      0.86408623911026     -1.76840451123829
  H          -5.01483140491164      0.56492543275445     -0.87734373081596
  H          -3.65941698826589      1.54005402072272     -1.44560135586391
  H          -3.72683864233003     -0.18046960024619     -1.83463655831041
  H          -3.07385137770449     -1.42845301887401      1.66017498452271
  H          -4.68055526046580     -1.14544141720303      0.97619190201134
  H          -3.44419478474552     -1.94262104978622      0.01189875255615
  H           3.00982230081237     -3.16754895491609     -0.07728475931871
  H           2.31141307626870     -2.56927829818794     -1.59130921210068
  H           3.33320778848587     -1.51655748453413     -0.62786570677638
  H           4.58263625614788      1.50459668564514     -0.73893700189942
  H           3.81410222182775      1.47987635436123      0.93437792598430
  H           1.47902857593940     -3.25012719691109      1.70938250331141
  H           0.06273762120416     -2.07324760971566      1.82507741172705
