39
Coordinates from ORCA-job 12309452 E -585.875524396032
  C          -1.08447186731856      0.92947951996212     -0.34382742722714
  C          -0.68171438445157     -0.51731170172241      0.11982284526021
  C           0.12254941928896      1.84337959504204     -0.07749216471811
  C           0.61845417968844     -0.98795747092862     -0.56681131638563
  C           1.42273080886578      1.35867991953109     -0.73342072024000
  C           1.76282015684865     -0.04443045540856     -0.29629076560998
  C          -1.46908607972214      0.98167222379887     -1.83392131116686
  C          -1.79044941299136     -1.54858493247551      0.02360936529437
  C          -2.30512442640009      1.37199255735535      0.42853678435836
  C           2.91297160616754     -0.40079063922998      0.29625870395837
  C          -2.49391540961751     -1.86658482592425      1.31396657666620
  C          -2.10651045673982     -2.17743555706085     -1.10649639724527
  C          -2.39784769053020      2.35596114384383      1.31447192618614
  C           3.23561472173520     -1.80035850724927      0.75394459837900
  C           4.05017228528736      0.54717486289668      0.57983574787982
  H          -0.44392874460454     -0.41115892279363      1.18329854129160
  H          -0.10971420070706      2.85472168320159     -0.42163572244796
  H           0.29082125655992      1.90442513947814      1.00124253658141
  H           0.82606800458331     -2.00044142010567     -0.23308900954840
  H           0.45581444914197     -1.05426919900548     -1.64690351219139
  H           1.30717905511865      1.37479051695917     -1.82290799700441
  H           2.21421824103192      2.06706669670582     -0.50293462358574
  H          -2.36129229415612      0.38801589324012     -2.02771243671135
  H          -1.68137045777414      2.01378573336341     -2.11875171807747
  H          -0.67491202529364      0.61300254118235     -2.48196911266440
  H          -3.20352423085101      0.80791579762200      0.19223793125041
  H          -1.78918150670224     -2.30381159622113      2.02893780151651
  H          -2.88843569674756     -0.96262682516168      1.78372292819619
  H          -3.31260996808189     -2.57124074792917      1.16569994630606
  H          -2.89831246517334     -2.91626370749229     -1.13374120425087
  H          -1.59066542414238     -1.98970758585666     -2.03849079453484
  H          -3.34174574189772      2.58227523402428      1.79452737725676
  H          -1.55450969911302      2.97246592821465      1.59683358356213
  H           3.46821946984024     -1.80363272345291      1.82394395576098
  H           2.44006767313603     -2.51990803455365      0.58489787109440
  H           4.13206793122033     -2.16851420364872      0.24400274616755
  H           4.26788256537078      0.56814775666856      1.65283314316414
  H           4.96432348872712      0.19844145458523      0.08811574301233
  H           3.87049787040372      1.56838385854515      0.25700558046687
