101
Coordinates from ORCA-job 12308885 E -2417.927096472768
  O          -6.35312311048276     -1.18729593295493      1.38886993201721
  O          -0.31501299916786     -1.99959907227750     -0.68503158398933
  O           1.23586513302607      0.30568401039402     -1.06221159936527
  O          -2.82208922262929     -1.89785566822796     -3.34339965599261
  O         -11.18031722897818      0.39990712260407      0.02573957929756
  O           2.94679382958923      1.71035547988439     -0.55516847175518
  O         -11.63110213340524     -1.03944416369541      1.70690115754471
  O           4.67114429175449     -0.87016501657687      1.11609735093161
  O           6.41571168516099      1.26387406897756      0.39910143495254
  O           7.53976031001228     -0.67224252060809      0.84406290957915
  O           8.87790344669951      2.53042004989454     -0.33563713358630
  O          11.18725636405946      1.21711124682697      0.75297721315499
  O          11.05574851718242     -1.60030374642534      0.70901249285076
  O           9.33837133981092     -3.83337608684566      0.93001363319541
  C          -5.59100844951874     -0.19212977476797      0.68182919684027
  C          -4.27823531544817     -0.82676615147923      0.17758148690752
  C          -6.51941756728855      0.31967327738205     -0.45046157941242
  C          -3.51987722792844      0.05411247167189     -0.83633233164131
  C          -2.22226815639501     -0.64886907779458     -1.36543464501802
  C          -1.31101153435033     -1.10057516436132     -0.17862198102621
  C          -7.53567046329773      1.27022196450367      0.30028781542081
  C          -5.69586002294798      1.20046391783456     -1.40961059607910
  C          -4.45043460740867      0.51780608627200     -1.95993618934061
  C          -5.43303941977566      1.03275035830454      1.59066325343002
  C          -3.35858699293920     -1.21628028521148      1.33927702024217
  C          -2.08824450596453     -1.90750672221642      0.86165905570329
  C          -6.83581148010435      1.65064181623710      1.63602195093816
  C          -1.41955918813198      0.26452574712656     -2.31574714684111
  C          -0.62954885459293      0.10366679807839      0.49428916999243
  C          -7.18343085743841     -0.81510284656343     -1.22886231235535
  C          -0.78383331389132      1.46015305201397     -1.61501363895203
  C           0.11710982031565      1.01590927647610     -0.47408853309779
  C          -2.62822906805645     -1.89273815472336     -2.15416089993313
  C          -8.91248945931076      0.72006424673336      0.48675865068216
  C         -10.03282597794909      1.10390158160859     -0.43605765638733
  C          -9.40413740689941     -0.12720938071544      1.39192185792878
  C           2.42992459342560      0.39999860526689     -0.35206537396581
  C         -10.83528123252655     -0.35371280974113      1.13084124420118
  C           3.39931600399194     -0.63661585033250     -0.88347111094644
  C           4.77106212006252     -0.47131789234657     -0.24074436824466
  C           4.15672103432882      1.95139289367833      0.15901911531552
  C           5.22981985363639      0.99192405469126     -0.36063411280197
  C           4.51378164408537      3.41029171411990     -0.03294595336743
  C           7.55026361463719      0.53529670617268      0.08725317193878
  C           8.76902361589940      1.36722403743488      0.46967488718265
  C          10.03259477875291      0.55197173483984      0.26096108704811
  C           8.66125779738781     -1.51759713234425      0.57737684672279
  C           9.93220326922101     -0.77521789095819      0.99266568140744
  C           8.44801708545683     -2.81850166923887      1.34436552364561
  H          -5.86586868456422     -1.44043820914144      2.17975606464365
  H           0.39822377153172     -1.46516055318473     -1.06421912315923
  H           5.57140526859620     -0.87905333689130      1.47114273177540
  H           8.09764633937868      3.07540824482102     -0.17904084733813
  H          11.24619393215436      2.07492998708440      0.31532732430028
  H          11.85039011006406     -1.07421678531063      0.86473489170000
  H          10.23417375546702     -3.46938385808824      0.95769296414637
  H          -4.58383166783989     -1.74710990058120     -0.33086419184265
  H          -3.18742018898472      0.95010201220048     -0.30213042334112
  H          -7.64215345923800      2.16371419336543     -0.32053950240087
  H          -6.34532627307014      1.50718476323944     -2.23400260983728
  H          -5.40097247247107      2.12231041828502     -0.89994760971236
  H          -3.93057121516499      1.21848034120651     -2.61341640442858
  H          -4.72861910470313     -0.32836950714998     -2.58894307970038
  H          -5.07556549356816      0.75557408450835      2.58339308510162
  H          -4.70378421176045      1.72865722157346      1.17434838299522
  H          -3.10152779454659     -0.32141382021974      1.91216661832159
  H          -3.87433869140099     -1.88779155702332      2.03071025774073
  H          -2.33336544272621     -2.88042941573875      0.43303190494490
  H          -1.41957784715822     -2.10908458770412      1.70168569166965
  H          -6.80635890056114      2.73102990907310      1.77652509951671
  H          -7.39604360009374      1.23678652025751      2.47121595636026
  H          -0.63261628665169     -0.33286170631804     -2.77771140445247
  H          -2.04998735875824      0.58831891861965     -3.13947524775165
  H          -1.37052300883088      0.70858382215167      1.02009626377794
  H           0.05422409031726     -0.28331198258915      1.25379560948825
  H          -7.78614876604756     -1.44537190167443     -0.58159256807378
  H          -7.82189173180083     -0.41093725118373     -2.01728704140166
  H          -6.44118333181224     -1.44966519822088     -1.71206838481019
  H          -0.19457722024274      2.04217482708808     -2.32529463206276
  H          -1.54808320096215      2.12940688106342     -1.20970745559407
  H           0.51172103915569      1.88747077712354      0.05121379357810
  H          -2.76366797693568     -2.82191567845607     -1.57479027938974
  H          -9.83075798587237      0.82183435467367     -1.47397254405243
  H         -10.23327383434897      2.18018668151356     -0.40767028283840
  H          -8.88079349280333     -0.62308280310792      2.19161791643411
  H           2.25973658795485      0.25554744435951      0.72409972857990
  H           3.02945102921338     -1.64150143118343     -0.67583191071704
  H           3.46823694346435     -0.50653189613360     -1.96552853177284
  H           5.48743969253610     -1.11347498699916     -0.76532226505932
  H           4.00583968619996      1.73702146973485      1.22446931937266
  H           5.42305403886114      1.21656455485642     -1.41757738330540
  H           5.41159192099124      3.65923282968887      0.53160341969354
  H           4.68430567603060      3.62553142806019     -1.08982059822440
  H           3.69750776774059      4.04196724712846      0.31798678968263
  H           7.58024648277557      0.29064274048056     -0.98610884231723
  H           8.67463307837833      1.63048002390255      1.52952671722517
  H          10.14552492808848      0.35203460337812     -0.81331894325032
  H           8.71013308150019     -1.75053269518245     -0.49469423255417
  H           9.87504701939265     -0.57512337082286      2.07040642323797
  H           7.43722275985655     -3.17752154741096      1.14566395646466
  H           8.52827989160018     -2.61832362774335      2.42153458366493
