39
Coordinates from ORCA-job 12308846 E -585.924017746596
  C           1.07269682225060     -0.98862821963111      0.14280964859798
  C           2.52637407092250     -1.23937678301116     -0.27817882568789
  C           0.14819280453393     -1.87830684917650     -0.70808243640749
  C           0.67061830573546      0.46443624895995     -0.09750335585220
  C           3.47242442324237     -0.18473098197173      0.27899169555893
  C          -1.32499000373122     -1.69411121694433     -0.36101168562964
  C           1.58072300511858      1.44741017363501     -0.25180298084345
  C           3.06809113029090      1.19760113797020     -0.22054072618742
  C           0.89130505884424     -1.33401220693231      1.63421801659732
  C          -1.71061155954095     -0.24350124145739     -0.24333298322073
  C          -0.77078687356045      0.70916185919782     -0.14486483302193
  C          -3.19571247073052      0.04980068779380     -0.23918720977474
  C           1.24160181537246      2.88790835210971     -0.51997288380765
  C          -3.86614803568315     -0.53563995582236      1.01653660699076
  C          -3.55791989714709      1.52653983555953     -0.38505738418189
  H           2.82699218578718     -2.24109927400030      0.04251647854379
  H           2.58329210603471     -1.22665310989217     -1.37210205145271
  H           0.30493332145943     -1.62505618504213     -1.76075896060574
  H           0.43772475855855     -2.92605499699817     -0.58446073624770
  H           3.44969134228392     -0.20406462890918      1.37105798930466
  H           4.50323747194941     -0.40145346426725     -0.01124412199919
  H          -1.95193749731258     -2.17520818334706     -1.11950960646501
  H          -1.55504264626010     -2.21450947584976      0.57544757555195
  H           3.54749832648568      1.97546340689166      0.38465454998408
  H           3.45467812813031      1.35079618316559     -1.23782459246007
  H           1.59207780707383     -0.77587007116532      2.25443911596257
  H          -0.11160766083731     -1.08847355397516      1.98139311426542
  H           1.06136668032515     -2.40124290271198      1.80161641615113
  H          -1.09370108000128      1.73742598746664     -0.08300223366212
  H          -3.61958627567597     -0.47946106365813     -1.10337593345616
  H           1.53809209593412      3.51712471833737      0.32628587510229
  H           1.80768246317819      3.24927389144146     -1.38473085332104
  H           0.18895067102362      3.06583790453310     -0.72072799099938
  H          -3.69675883350851     -1.60887134262256      1.10662415001663
  H          -3.47103643627780     -0.05428586758728      1.91454602998341
  H          -4.94519577346149     -0.36960960960614      0.98858367067141
  H          -3.22565777519051      2.10607616494190      0.47951250927809
  H          -3.11089454153986      1.96419564938617     -1.27913233593455
  H          -4.64113443407637      1.64002998318957     -0.45846972134172
