39
Coordinates from ORCA-job 12304273 E -585.895331895122
  C           0.22328769699119     -2.06156013244692      0.10257113659955
  C           1.16221662222632     -0.88303543784686      0.11664148818146
  C          -1.22199021526742     -1.63436959239168     -0.20720348818178
  C           1.24675621269714      0.00853165516661     -1.10104194567357
  C           2.61514754901577      0.67652473795299     -1.23606078131937
  C           0.68783652210651     -3.14853374505227     -0.87727307947674
  C          -1.80520090581849     -0.65414552783407      0.81817895752390
  C           1.87082449874930     -0.53265901494082      1.19868105307547
  C           3.10619808627553      1.24905434273244      0.07160922916859
  C           2.74205400389668      0.63699154274283      1.20660586599457
  C          -3.21087712000178     -0.25394955998333      0.48952305745668
  C           4.04695239996365      2.40954775741661      0.01882846846162
  C          -3.64235532235190      0.92417380254145      0.03366012088775
  C          -5.09701651881606      1.15095954884598     -0.27442740080548
  C          -2.76119770220633      2.11540600693689     -0.22011243477740
  H           0.23343183337165     -2.49461706407482      1.10884820489397
  H          -1.26757952417288     -1.18134083469102     -1.20216864267753
  H          -1.85071984168887     -2.52903611030637     -0.25397572899810
  H           1.01345723316391     -0.54468495081488     -2.01213663825266
  H           0.47295538177762      0.78451657137311     -1.01219779189738
  H           3.35378227009462     -0.06042757807947     -1.58475158308882
  H           2.57637855132208      1.45330243686709     -2.00384200287366
  H           1.70245605650043     -3.47555850335275     -0.64456309848704
  H           0.02717835039301     -4.01704887924596     -0.82739294033833
  H           0.67838560640972     -2.78646619535971     -1.90768967522902
  H          -1.78608384556663     -1.13268418423141      1.80425834501742
  H          -1.15333147273413      0.21575230649852      0.89646776576806
  H           1.78451119620440     -1.11367502357117      2.11072714952258
  H           3.12123053848016      0.98977071462408      2.15962798413421
  H          -3.95307828111675     -1.03975104163769      0.61507840421802
  H           4.39120796387292      2.69538975551666      1.01334374429040
  H           4.92496986302910      2.17085099527138     -0.59232763748545
  H           3.57502532479402      3.28158678018405     -0.44563910689828
  H          -5.50035495263654      1.97381439750501      0.32511050365465
  H          -5.23577898011880      1.43339342240715     -1.32334050359069
  H          -5.69501542699027      0.26071802707978     -0.07844866722463
  H          -3.09657248791445      2.97421534668665      0.37019312323689
  H          -1.71484282172728      1.93338492434832      0.01482767159584
  H          -2.82376734220712      2.41803230316363     -1.27046012640572
