29
Coordinates from ORCA-job 12302318 E -467.028989865178
  O          -3.13326492155379      0.11763447727123      0.10053483101366
  C           1.60705407525306      0.20259598855680      0.10075491041073
  C           0.59965563729744     -0.98263372168943     -0.02387312958921
  C          -0.34444765563506      1.17430984660221      0.67642438014210
  C          -0.74659135729003     -0.30026380249654      0.45086998602858
  C           1.04865068775321      0.98963395749561      1.30076242082515
  C           1.38875929270931      1.23174300349800     -1.02345439412377
  C           0.00666895342218      1.85250290680857     -0.66321234293760
  C           0.54839682374423     -1.57751315396101     -1.43595156858525
  C           0.99087809560716     -2.11266731467861      0.93595315612757
  C          -1.97271955975765     -0.53151566381217     -0.41748602287171
  H          -3.27792924913200     -0.19297042916270      1.00135910132547
  H           2.63983460987973     -0.13904199694733      0.18423328089913
  H          -1.07153511128357      1.72831890855349      1.26708678157361
  H          -0.99232116021360     -0.71796594570143      1.43592590608223
  H           1.03171297566024      0.42899430312284      2.23550417689961
  H           1.57491577971853      1.93120830859078      1.46881729980954
  H           2.17580810078618      1.98690669934710     -0.98318492221872
  H           1.41722618572330      0.79877495511353     -2.02117710631798
  H          -0.74711921424027      1.68014347026141     -1.43051629776494
  H           0.08088911687862      2.93285373732657     -0.53220346125445
  H          -0.08052549512389     -2.46953381437134     -1.45952311166238
  H           0.16359700616609     -0.88499030903139     -2.18220485811381
  H           1.55089749275672     -1.87783601459156     -1.75068287723779
  H           1.13326593557008     -1.75125927209003      1.95505225070776
  H           0.21342709360038     -2.88086487479791      0.96195631531170
  H           1.92008911281868     -2.59080633825022      0.61555132775832
  H          -2.15464441128965     -1.60757044412704     -0.52752174999237
  H          -1.84503883982564     -0.12409246683944     -1.41904928224518
