21
Coordinates from ORCA-job 12304 E -312.232662890872
  O          -0.30780225106770      0.34342259753603      0.28493475018156
  C          -1.52530230852156     -0.10230109684524     -0.30807337006717
  C           0.86860610457454     -0.25558391474045     -0.22265697308978
  C           2.07292878392782      0.46037422122097      0.36002430495644
  C          -1.89066415932363     -1.51671949213567      0.13316681818091
  C          -2.58939549759308      0.90882611737570      0.08174232189309
  C           3.39072069568338     -0.13439241766126     -0.12943149680343
  H          -1.40118525502673     -0.09129660319678     -1.40169130880446
  H           0.91047771834750     -1.32231435229270      0.03604113756896
  H           0.87901629750761     -0.18625432073429     -1.32122922549463
  H           2.01153707412609      1.51902899014078      0.09499397995446
  H           2.01469800272729      0.40594871625295      1.45029532884186
  H          -1.99030596929677     -1.55495157002065      1.22011407951649
  H          -2.84041078712611     -1.81944205923091     -0.31245254783045
  H          -1.13642055989593     -2.24391566439173     -0.16958090756554
  H          -2.71045052453406      0.92709916950146      1.16681802575739
  H          -2.30431752635237      1.90822158583972     -0.24803083072702
  H          -3.54930613688962      0.65115768657371     -0.36923734544014
  H           4.24334818102982      0.39322229051176      0.30068771573097
  H           3.47885418057311     -1.18777488420388      0.14819569315983
  H           3.47616393713037     -0.07031599949950     -1.21715614991935
