14
Coordinates from ORCA-job 12300 E -767.244125095286
  Cl         -2.98023822152577     -0.84081985116928      0.50228948983585
  O           2.43119060876096     -1.09364209981079     -0.13818801039697
  O           1.97158731016881      1.01352824798839      0.36467256017622
  C          -0.81452588409691      0.79636912268621     -0.03558217502731
  C           0.12040106757051     -0.37116069384329     -0.31844512559012
  C          -2.25089988814017      0.52962278695605     -0.43555133330781
  C           1.56683130122575     -0.05521624268006      0.00916034815974
  H           1.96145612805119     -1.89241028467223     -0.41124595748454
  H          -0.76591387471471      1.05893142423787      1.02194870792880
  H          -0.47215916978446      1.67580857033456     -0.58768233333065
  H          -0.18984129943899     -1.25114256030048      0.25221190704921
  H           0.06941096167825     -0.65700978158001     -1.37569005130745
  H          -2.33984105947923      0.25293799340968     -1.48469124259088
  H          -2.88245198027521      1.39207836844337     -0.23970578411408
