101
Coordinates from ORCA-job 12309067 E -1820.920171829107
  O           5.37573320400585     -0.22181837953755     -1.27530842022954
  O           6.67403399056198      0.94467117342599      0.17253917921827
  O           7.24338077729950     -2.34965960086456     -1.26292871518384
  O           9.85470736264727     -1.53119807723285     -0.51498266000725
  O           9.96062084110431      0.30872432311920      1.70985810101828
  O           6.61936397143946      2.89556855570916      2.35176745779066
  C          -3.28218195068507      0.25352656309670     -0.12589740230975
  C          -2.30412643191812     -0.35747948058299      0.90178207342961
  C          -0.98061275924668     -0.84145834520927      0.32539110266340
  C          -0.27774595666686      0.31152888010059     -0.41608176513585
  C          -4.49112754523513      0.57170677664938      0.80171697167666
  C          -2.56249416657540      1.45625421722250     -0.74743719912942
  C           1.05185442594798     -0.14125484124697     -1.08832012726997
  C          -3.15820143200083     -1.34048430805541      1.70000020147765
  C          -1.22426648986049      1.04885646944827     -1.37697456940102
  C          -4.54254160989295     -0.65470690085539      1.76294828253435
  C          -0.06801384662523     -1.37707553574095      1.42841780545654
  C          -5.86097425022770      0.87838131812028      0.17139515025469
  C          -3.69434287815803     -0.75653777191892     -1.20872450682125
  C           1.86597590340084     -1.00009334461246     -0.12447341712926
  C           1.88138182805755      1.12278856127157     -1.43334219357593
  C           1.35512614490832     -1.51718082512347      0.99105366880056
  C           0.78963400788245     -0.95498701264830     -2.37287445879517
  C           3.30732434899146     -1.24645586582603     -0.49529784651708
  C           3.32148743930739      0.84550766809762     -1.85988501891925
  C          -6.89491852859377      1.15398216223736      1.27904826162532
  C           4.04993315371685      0.05404029363691     -0.79301142478580
  C          -5.82596795214300      2.03749394893963     -0.82631067329034
  C          -8.34070907847423      1.35632402697876      0.81168072997851
  C          -8.93095064620699      0.23838973697289     -0.06389189304940
  C           6.33464519488832     -0.35955961495877     -0.30076796318160
  C          -8.85518460171260     -1.15098584616368      0.61267991280862
  C         -10.35080862866102      0.60960363108912     -0.52366230576994
  C           7.56915745665548     -1.02070828869109     -0.89961473898654
  C          -9.10908454743057     -2.28732498500644     -0.38081136593411
  C          -9.76721100096559     -1.28413508100869      1.83448758452048
  C           8.69756503147080     -1.00792957567028      0.12137872942548
  C         -10.39023044326065      1.71678643902600     -1.57648409139882
  C           7.62593836171487      0.96356132625955      1.21795021857030
  C           8.94568957017398      0.37511589377148      0.70574175853926
  C           7.77483208532947      2.39929706314959      1.69369359351893
  H           8.06312192517392     -2.77968032237961     -1.53552100223022
  H          10.60255035250331     -1.39806534314998      0.08081168911838
  H           9.63360248635503     -0.23120101901068      2.44094994370058
  H           6.53377311045448      2.45689629483085      3.20492028396330
  H          -2.05259328915285      0.46718482334135      1.58446814197289
  H          -1.17214704994561     -1.65763537254329     -0.37876668436678
  H           0.01005876184134      1.03081470861051      0.36289278925520
  H          -4.20232316260750      1.45298469848369      1.38854203242366
  H          -3.17115935710986      1.94366704541964     -1.50904871901805
  H          -2.38893139411086      2.20075278058922      0.03737180719658
  H          -3.21818135364738     -2.30179863839835      1.18375207364260
  H          -2.74881471832295     -1.53937751347475      2.69066075431316
  H          -0.73196259176180      1.94492182321673     -1.75938782414776
  H          -1.42729097768730      0.42361738640676     -2.24736591129754
  H          -4.78531927710680     -0.34403140902019      2.77873863060484
  H          -5.33175779756329     -1.34359872604797      1.45382713034584
  H          -0.11840427078091     -0.70750544495974      2.29855083261257
  H          -0.43741588226679     -2.34346211465960      1.78486675608968
  H          -6.17940291758299     -0.02017980159989     -0.36688031696620
  H          -4.24497281693223     -1.59873791955519     -0.78893132927514
  H          -4.33895739553544     -0.28290821387126     -1.95059165434758
  H          -2.83547252328247     -1.16377476684749     -1.73930485707836
  H           1.37543611803324      1.68291127194612     -2.22128864446775
  H           1.89750259878955      1.76980117808951     -0.55020706661202
  H           2.00720805648536     -2.09673887979642      1.63935686924369
  H           0.09503386989254     -1.77369772809228     -2.18159643372600
  H           0.37391434050624     -0.32801366710554     -3.16223753877075
  H           1.70803496379917     -1.39438283203465     -2.75858479529558
  H           3.80240532352101     -1.79885125568515      0.30526572171871
  H           3.37728827520987     -1.86786927262376     -1.39370159289123
  H           3.35318901414965      0.28167289626071     -2.79606477950528
  H           3.84929673505928      1.78460230349313     -2.03682870432021
  H          -6.86817540634418      0.34073087219281      2.00471308702369
  H          -6.58058962436660      2.05037382135710      1.82619732366168
  H           4.12443864006078      0.66137697590422      0.11500825349334
  H          -5.42978865263648      2.94281842017881     -0.35819767669563
  H          -5.20687760412014      1.81215488025854     -1.69216002963827
  H          -6.82470493899242      2.26686227406148     -1.19865826123901
  H          -8.97183718840657      1.48393405037919      1.69676022938643
  H          -8.41452050746056      2.29944896087972      0.26769516155751
  H          -8.31563645964659      0.16674919982811     -0.96875944774816
  H           5.96895807412462     -0.95901188364750      0.54964419822675
  H          -7.82611559627257     -1.27259864980387      0.96231479049940
  H         -10.84368630036961     -0.27331666568832     -0.93700463801608
  H         -10.94573709967983      0.91167502599043      0.34376187372250
  H           7.86661872705532     -0.43292246352840     -1.77630232269105
  H          -8.92941816994030     -3.25720671951650      0.08846901195404
  H         -10.13870025167214     -2.28933402625932     -0.74476838631212
  H          -8.44851329422215     -2.20738452416486     -1.24755926709322
  H          -9.57351880442824     -0.50619435879613      2.57485338046786
  H         -10.82083088962733     -1.22321216578245      1.55322901138197
  H          -9.61373335385137     -2.24900951612921      2.32256803677112
  H           8.39887180958319     -1.67453845300557      0.94819334887526
  H          -9.97384717474545      2.65371856501660     -1.20286015206552
  H          -9.81853545075269      1.43045782168727     -2.46307050857902
  H         -11.41513855122439      1.91960455661419     -1.89377597777139
  H           7.27057774772252      0.34211476297961      2.06177182844194
  H           9.35160704170313      1.02877081188540     -0.06932941661764
  H           7.92219127333065      3.03750118856608      0.82134618173318
  H           8.66378549383936      2.47270492134162      2.32799273889876
