49
Coordinates from ORCA-job 12309865 E -1600.291661781067
  O           1.70516186056081     -1.45749729603706      1.14487498645162
  O           1.13720693052036     -0.64770278452980     -1.01227135113576
  O           1.88067547452233     -3.30248781321882     -1.92374801876127
  O           4.47829352572623     -1.51346057349341     -0.01720456028081
  O           2.03562321398346     -5.03774711201089      0.29535553458431
  O          -1.57379275277582      1.42459802408477      0.21982813462416
  O          -0.92921315035239     -2.29446047706357     -1.26830532957887
  O          -3.58106946657365     -2.75502747828194     -0.94468063433639
  O          -6.13507281957740      0.82547281726356      0.94831710704592
  O           1.21346116365524      5.02235181934539      2.14132921101066
  O           3.28511046878956      5.30804016517817      0.45961833479675
  C           2.84776404600091     -3.12822238362111     -0.91766564207329
  C           3.25460035567952     -1.64860440962092     -0.73372429464157
  C           2.43229988819155     -3.68566104551845      0.44633888333561
  C           2.16232358859546     -0.84711524889082     -0.02616551552003
  C           1.31086319225968     -2.84000078544319      1.03611212111043
  C          -0.09412875013300     -0.20621301375697     -0.62260228759670
  C          -0.32453296804041      1.05125416617025     -0.17590159575047
  C          -1.17229315143355     -1.18163032760221     -0.80913280631474
  C          -2.49566345430435     -0.71630388676280     -0.39174832745137
  C          -2.63309068787451      0.57950252220014      0.13169429435682
  C           0.64441170119709      2.14177847718468     -0.03566407841571
  C          -3.67200222853580     -1.50353983258520     -0.45041992866464
  C          -3.83768536435965      1.10184508271965      0.58112689161956
  C           0.48271973728396      3.08239516898911      0.98860410272753
  C           1.71098367838772      2.27691319683354     -0.92772200061030
  C          -4.88425265861121     -0.99616602907449     -0.00647592618875
  C          -4.96313792078466      0.30111611297073      0.50705737898427
  C           1.37848301580084      4.12561795662752      1.13315382898004
  C           2.60625579995800      3.32735935596087     -0.78723134340507
  C           2.44922475031190      4.24577293981146      0.23888688863610
  H           1.04413472883684     -2.85632436119515     -1.70407657700949
  H           4.30475852500400     -1.66856415193955      0.91872846592855
  H           1.89308169186685     -5.41761136102163      1.16909253470276
  H          -4.45076009654274     -3.17228345913160     -0.92691197840020
  H          -6.84603099447259      0.18285328084570      0.84396216898581
  H           1.92707768665046      5.67261212003188      2.09373188840869
  H           3.99982794833705      5.31310038891011     -0.18624131035180
  H           3.73281268636065     -3.67097440085742     -1.25471309611383
  H           3.42367131824309     -1.21604737731124     -1.71897895689093
  H           3.30800048913931     -3.62202518343191      1.10749891690268
  H           2.55034386997266      0.11862157392136      0.30018268019446
  H           1.08241760554290     -3.14573114161606      2.05785702699922
  H           0.41128236807487     -2.94326381547089      0.43023115799183
  H          -3.89082742325473      2.10742892672991      0.97012018903747
  H          -0.33930346856362      3.00566630467389      1.68548834845546
  H           1.83535102656663      1.56839410805404     -1.73216283142587
  H          -5.77532516132568     -1.61345337823697     -0.05992903233432
  H           3.43078818149578      3.43423561921734     -1.48299765261854
