52
Coordinates from ORCA-job 12304886 E -1489.612218750707
  O           0.86403931116254      1.28632315654845      0.70798884443490
  O          -0.50621546646845     -2.12275701149417      0.35148242609446
  O          -0.94934638212714      2.20267286705312     -0.26890522229743
  O           2.18792692569324     -0.45753731165480      0.13739604275633
  O           3.07319243084895      3.07658443595756      0.43275106188691
  O           5.65865084308201      1.77608457131982      0.53473780595206
  O           5.70833183674400     -0.77999946371139     -0.69294827052176
  O          -1.57362700592842     -3.32196884565533     -1.15928887105404
  O           2.14941049781259     -3.04066305002449     -1.05935141268791
  O          -5.28285649095965      0.33611552580446     -0.14048237671528
  O          -5.04536791788712      2.45551959917403     -0.86658029979182
  C          -1.23407780548978      0.14471316624776      1.01578146342404
  C          -2.59778628902924     -0.09153522743513      0.36015792386663
  C          -0.33821819133067      0.94985663737040      0.08389552755515
  C          -0.59200381062302     -1.17016844326828      1.44598465543819
  C          -2.50523298111430     -1.16874884608121     -0.73498296231293
  C           2.02574945964402      0.93034001906099      0.00782585289384
  C           3.19715453202442      1.68452038245670      0.62914866513671
  C          -3.12156885591401      1.21392391429945     -0.17545325139744
  C           4.48439080992576      1.19560964344994     -0.01980304973972
  C           4.57932706095853     -0.33248360139579      0.03094047102948
  C           3.32701513050624     -0.96861296400329     -0.56483265411642
  C          -1.29713096541903     -1.83215903680970      2.61863530815585
  C          -1.53503243304070     -2.31155990741669     -0.51653172273185
  C          -2.28320804533015      2.23207593674439     -0.42217613656864
  C           3.27954715577125     -2.47955242711470     -0.42845646012039
  C          -4.55213234127104      1.43763910617486     -0.43849060714922
  C          -6.69482113138829      0.44725054204962     -0.37221368467524
  H           2.20625933553036      3.34493298311262      0.76252546787365
  H           5.56193673526276      1.83627657568876      1.49256831360476
  H           6.44557302400007     -0.20353447962406     -0.45139331124798
  H           1.35209872987110     -2.80370508075193     -0.56498730770576
  H          -1.36849276928567      0.75338185001527      1.91406353265969
  H          -3.28455022933112     -0.44512338894349      1.12860468549948
  H          -0.13870398481099      0.40854394115388     -0.84494997199102
  H           0.44934535228160     -0.99101901733220      1.69924058691454
  H          -3.48345279945579     -1.59848490436091     -0.93952410372854
  H          -2.17866974580353     -0.71210734551198     -1.67438590095154
  H           1.92787594604895      1.20619507986007     -1.05340638442961
  H           3.20802255978856      1.43433869591768      1.70133295777307
  H           4.48439406705195      1.50537855473419     -1.06885998889174
  H           4.65213501786704     -0.64191916913431      1.08536640447352
  H           3.25194571677788     -0.70473370265168     -1.62767533991907
  H          -1.27011482678115     -1.17768340714125      3.49169403664982
  H          -2.33973584499038     -2.06050079094838      2.39211123427900
  H          -0.79437968306583     -2.76556049857895      2.86989090894332
  H          -2.63570095481656      3.19206289572889     -0.77348362743346
  H           3.31868181345228     -2.73714148150131      0.63849464178648
  H           4.16194501671628     -2.89888469577778     -0.91066016246765
  H          -7.11378198667692     -0.51500191057612     -0.09085777166499
  H          -7.11910497835173      1.24447299773166      0.23709379205127
  H          -6.89233739213170      0.66037093124472     -1.42213275882177
