39
Coordinates from ORCA-job 12306055 E -585.914921982584
  C           1.38344012706139     -0.17898706497608      0.23596346909086
  C           0.02514995769799     -0.29656095175658     -0.48824062305184
  C           1.96048963001463      1.21664373714336      0.00794450353194
  C          -0.83048681174607      0.95531204071740     -0.39631797735698
  C           2.36725927249066     -1.31294255681910     -0.13604453330525
  C           1.03268363199406      2.27955510494523      0.57459071769746
  C          -0.39676481071721      2.10758508361956      0.12578312269452
  C          -2.22693002655904      0.71205258925368     -0.89924268128744
  C          -0.75819670315627     -1.48867449763967      0.02078283157934
  C          -2.94215772967491     -0.32195433515616     -0.02464593838411
  C          -2.06822401244557     -1.51302888088396      0.26227265955327
  C           2.95826753991185     -1.17703923369382     -1.54226956758759
  C           3.48399079147481     -1.44440990050262      0.90283780508851
  C          -1.24199335376059      3.33560743678200      0.32314488646958
  C          -2.75663529715573     -2.71917354448833      0.83058589423284
  H           1.17620349905518     -0.27671979292651      1.30907137009077
  H           0.23677167453894     -0.46943192094322     -1.55497377129390
  H           2.95092701316499      1.30543969771823      0.45931503337367
  H           2.08307268360247      1.38910589778419     -1.06518911020706
  H           1.80563101828785     -2.25115908478937     -0.11332710737159
  H           1.07218488613158      2.27051762081632      1.67209353449847
  H           1.37920533295413      3.27582348425362      0.27854421262216
  H          -2.81202144595307      1.62698527609036     -0.96140533996548
  H          -2.16150405468071      0.31159044974390     -1.91784074799588
  H          -0.18403843744234     -2.38640620163069      0.22476783693488
  H          -3.25174623323008      0.13756000351488      0.92231351223092
  H          -3.86523960705904     -0.65590118387966     -0.51147409379451
  H           3.62829893497508     -0.31777352200784     -1.61241088480955
  H           3.53885683307094     -2.06634495556621     -1.79632090955094
  H           2.18516036318245     -1.06103074123619     -2.30393975466479
  H           3.07496365426439     -1.59975517962046      1.90365080607276
  H           4.13398419777303     -2.29082529121710      0.67020480118234
  H           4.11144966463651     -0.55061601436567      0.93278731491437
  H          -1.13255352571103      3.70128017613580      1.34926435967910
  H          -0.90673111772012      4.14755809435105     -0.33104987996959
  H          -2.30179129098492      3.17363538545692      0.14253606314634
  H          -3.26934044372517     -2.46979360554004      1.76561118755612
  H          -3.52364335237116     -3.09365959841712      0.14488555919505
  H          -2.05359945218992     -3.52764702027012      1.03342143916122
