81
Coordinates from ORCA-job 12305182 E -1248.288986597260
  O           7.19753552719309     -0.40831320383994     -0.67875786717674
  C          -1.41110532001164     -0.84540297800264      0.13818253276443
  C          -0.80604123210598      0.56757098239404     -0.19648730130574
  C          -2.89405697164396     -0.84540094067617     -0.26672230141885
  C          -3.80935342766920      0.25667159014269      0.33488061767999
  C           0.64987922628080      0.61310390328592      0.35180492538499
  C          -1.67922509697033      1.66050602781396      0.45250639360253
  C          -5.11852972553199     -0.07411689204772     -0.44805593380582
  C          -3.15796391916395      1.61385714312208      0.03305616347173
  C          -3.72374873906459     -2.12497761749651     -0.15978793920287
  C          -0.62900063965852     -1.87373831029046     -0.69342420271243
  C           1.45452812410777     -0.62265984468837     -0.03696351526330
  C           2.94892943295426     -0.62270396500940      0.33071368395697
  C          -5.16568609168598     -1.63056105647064     -0.42797626652017
  C           3.58897047288875      0.71355043082427     -0.16415584207298
  C           1.39021734098617      1.90541953350146     -0.03070551792939
  C          -1.21617693177992     -1.22333986950656      1.62163363878166
  C          -0.76758322754199      0.82038416539716     -1.72162285439908
  C           2.84354551955319      1.91243782033068      0.42090786957234
  C           0.85505444448183     -1.70260916751763     -0.54425215915158
  C          -4.07679356784450      0.13115550096331      1.84353381061051
  C           5.14324145202599      0.84259175002018     -0.08267057530451
  C          -6.45148159735673      0.55628353527785     -0.01557884270845
  C           3.69688637785648     -1.79184699491476     -0.33214772667866
  C           5.76914415570123     -0.42037504941553     -0.72333009525387
  C           3.00225793043058     -0.81726439818173      1.86477107233915
  C           5.20979217989978     -1.71529587920963     -0.15918424697931
  C           5.68540278042065      1.05848254877326      1.33947113230316
  C           5.58785034152109      2.04774364310275     -0.93147255958800
  C          -6.42652956730787      2.08614209173546      0.00353949179063
  C          -7.58614095134746      0.08034536698362     -0.93106927488649
  H           7.47415445785660     -0.60537194388540      0.22302787694880
  H          -2.89425074369596     -0.61852265087571     -1.33656414780933
  H           0.57816712411872      0.62079762888461      1.44622994213113
  H          -1.60574841715206      1.58956460519313      1.54051283267540
  H          -1.28151863015816      2.64320469184010      0.19264663892472
  H          -4.94283591328978      0.24845625439208     -1.48228953433799
  H          -3.24003157136665      1.82078269827662     -1.03761638722199
  H          -3.68485266651821      2.42305173525138      0.54008703349935
  H          -3.40652289145559     -2.88051808898175     -0.87906620894722
  H          -3.64614113295949     -2.57835901225202      0.82935628198188
  H          -0.89428550055570     -2.88582720752168     -0.37050940748167
  H          -0.92200525875120     -1.81977849003398     -1.74795410777920
  H          -5.84713472304266     -1.97369258753323      0.35358484520029
  H          -5.55238279033868     -2.02108994698331     -1.36900865103513
  H           3.37698816033535      0.72325383778308     -1.24206006243084
  H           1.37840309538564      2.03155391683633     -1.11487171591938
  H           0.86567262552659      2.76357861841410      0.39303834742056
  H          -1.40494931279929     -0.39905978464506      2.30286001286827
  H          -1.88903780898982     -2.03525906131163      1.89658846712159
  H          -0.20067199977981     -1.56980926815391      1.80246396134376
  H          -0.61538408249439      1.88064331292889     -1.92288887679010
  H           0.04504996153596      0.27406509235021     -2.19793573234160
  H          -1.69189184150332      0.53974195782340     -2.21941847356457
  H           2.90003261970794      1.90745853165544      1.51186418028266
  H           3.30775013786262      2.84358266101024      0.09487474512695
  H           1.44662633370116     -2.56830409633541     -0.81086998856111
  H          -3.20628600616682      0.38217128116336      2.44168332122983
  H          -4.87091873612205      0.81895583881916      2.13584394806723
  H          -4.39290940112125     -0.87209013175008      2.12967510351774
  H          -6.68088754480416      0.20664977677242      0.99712231622333
  H           3.33581440009871     -2.74163485406708      0.06739102565896
  H           3.46904645051913     -1.79412063120832     -1.40239361236676
  H           5.53594360382523     -0.38806301206550     -1.79250921671816
  H           2.55983812518928      0.01586835333359      2.40738124959057
  H           2.44101390365873     -1.71559635370124      2.12637915455133
  H           4.01725269925190     -0.94358745230742      2.23150983224948
  H           5.48459464775136     -1.80928879231220      0.89640681311461
  H           5.68565716640151     -2.55145660068917     -0.67637035206078
  H           5.14650059765890      1.85981152723535      1.84462847068268
  H           5.61633377172232      0.17296269612088      1.96847460843128
  H           6.73434779525502      1.35653043793173      1.29578727255714
  H           5.33481706359192      2.99657013385318     -0.45801269796950
  H           6.66875796421876      2.02003685995714     -1.06774607348503
  H           5.12030654445429      2.02652373736480     -1.91890697838532
  H          -5.75188884781474      2.48060842201643      0.76140719833299
  H          -6.10844214036612      2.48291594588332     -0.96441917028564
  H          -7.42326536742905      2.48130265718026      0.21223388757907
  H          -8.53749366795573      0.52296379749210     -0.62833827232968
  H          -7.39580815760569      0.37910030161836     -1.96631483092803
  H          -7.70286939500826     -1.00327220916859     -0.91274617846243
