51
Extracted from remain_result/Batch_006/12311348.out
O  -0.7800320000 -1.1240970000 0.9486360000
O  1.0450220000 -2.1405060000 0.0695010000
O  -2.0663800000 0.4824620000 -0.0038740000
O  0.5888700000 3.0341290000 -0.4786900000
O  -2.9905650000 -2.9230060000 0.9637020000
O  -5.5673690000 -1.6227300000 0.7355080000
O  -5.5679730000 0.6421970000 -0.9633220000
O  5.2374960000 -0.0518660000 -0.4889670000
O  4.9904830000 -2.1734600000 -1.2047510000
O  -2.0567190000 2.7889480000 -1.7689150000
C  1.3244870000 0.0156080000 1.1869660000
C  2.6718860000 0.2341420000 0.4537950000
C  0.7227080000 1.4179080000 1.3307740000
C  0.4370920000 -0.8639130000 0.3225920000
C  2.4111690000 1.4281100000 -0.4907300000
C  1.1612800000 2.1102860000 0.0489110000
C  3.1425960000 -1.0354910000 -0.1944590000
C  1.2736310000 2.1850810000 2.5414190000
C  -1.9147600000 -0.9063910000 0.1518470000
C  -3.1090300000 -1.5190570000 0.8760620000
C  -4.3740440000 -1.1654710000 0.1096540000
C  -4.4573140000 0.3427110000 -0.1404990000
C  2.3389160000 -2.1072280000 -0.2911900000
C  -3.1864830000 0.8469970000 -0.8202470000
C  4.5223080000 -1.1863290000 -0.6856020000
C  -3.1529100000 2.3556570000 -0.9934950000
C  6.5978990000 -0.0917110000 -0.9424880000
H  -2.1317660000 -3.1214030000 1.3579540000
H  -5.4885330000 -1.5109850000 1.6902550000
H  -6.3123760000 0.1230700000 -0.6307840000
H  -1.2692040000 2.8768540000 -1.2125140000
H  1.4608260000 -0.4846590000 2.1472860000
H  3.4169170000 0.5336660000 1.1913950000
H  -0.3639160000 1.4017700000 1.3783000000
H  0.2641740000 -0.3953060000 -0.6525550000
H  3.2419190000 2.1317780000 -0.5404550000
H  2.2104800000 1.1108720000 -1.5165000000
H  0.9819620000 1.6818050000 3.4643760000
H  2.3633020000 2.2511470000 2.5234240000
H  0.8740440000 3.1992220000 2.5596020000
H  -1.7871630000 -1.3876090000 -0.8298910000
H  -3.1453790000 -1.0612320000 1.8767620000
H  -4.3491890000 -1.6737370000 -0.8586160000
H  -4.5515940000 0.8524180000 0.8311580000
H  2.6902300000 -3.0542000000 -0.6775590000
H  -3.0897340000 0.3774670000 -1.8076710000
H  -3.1592490000 2.8240870000 -0.0013840000
H  -4.0632790000 2.6537890000 -1.5140760000
H  7.1514040000 -0.8714060000 -0.4202170000
H  6.6368370000 -0.2875100000 -2.0135290000
H  7.0106610000 0.8878020000 -0.7165830000
