39
Coordinates from ORCA-job 12313023 E -585.901720480406
  C          -0.09712472545281      0.01023899813706     -0.79116525711437
  C           1.16395628428749     -0.90099177741560     -0.65985819878564
  C          -0.07247467718062      1.16354667437847      0.23294973215199
  C           2.38710053143571     -0.05696521624814     -0.24115539806230
  C           0.98578826857537     -2.16251868006979      0.21829532908190
  C          -1.43699684906712      1.83753588735787      0.33608904201851
  C           1.08059590416322      2.08934453117829     -0.10174943150454
  C           2.27814621905402      1.39265002258994     -0.71197674453032
  C          -1.38877521782385     -0.75425573802163     -0.79029223789669
  C          -2.51983785772981      0.83507003469266      0.72820104256952
  C          -2.48179394848428     -0.41673896797979     -0.10910271897988
  C           2.23597947817114     -3.04573707220119      0.16116265422802
  C           0.59003529048506     -1.89214903252287      1.67233283355574
  C           1.07382700949153      3.40224538905191      0.10934615560991
  C          -3.73013280841677     -1.24748361640108     -0.12593987911212
  H          -0.01738967394404      0.47948345999719     -1.78086831899258
  H           1.36353671701720     -1.27980826658703     -1.66892338930510
  H           0.14447360085426      0.72677395417880      1.21437933795050
  H           2.49108974230771     -0.05938829666885      0.84690481392809
  H           3.29949695907744     -0.50716243951391     -0.63455190666776
  H           0.16897852723825     -2.73807452891307     -0.22640377385316
  H          -1.40877049308061      2.64818404367458      1.06595971431795
  H          -1.68677032029372      2.28715106835605     -0.62991812136088
  H           3.18961050896461      1.94595973156214     -0.47884291011595
  H           2.18263887598197      1.40519703673087     -1.80432721839277
  H          -1.41625569212393     -1.64668362837171     -1.40942426330395
  H          -2.42206174551603      0.56628266831352      1.78850993556288
  H          -3.50667311059020      1.30009994020953      0.63622732386006
  H           2.05176249536391     -4.00413295343662      0.65117913557562
  H           2.53349011923275     -3.24821865845603     -0.87069740666330
  H           3.08293974483348     -2.57746221783150      0.66726869644130
  H           0.50791529127812     -2.83558336673090      2.21697039554264
  H           1.33267961086301     -1.28346527030397      2.19277962559643
  H          -0.37372060755968     -1.38946843972386      1.73895948587595
  H           1.94136270946757      4.00747819201125     -0.12674102306115
  H           0.21875252196085      3.92417575970921      0.51631382785551
  H          -4.00672071944964     -1.55367473535385      0.88866021379865
  H          -4.57730903580895     -0.67751504388918     -0.52086666017833
  H          -3.60901092758261     -2.14671544548878     -0.73080043764039
