40
Coordinates from ORCA-job 12315259 E -661.101630973362
  O           5.70419746512682     -0.25175110164764      0.11246479455172
  C          -1.72852966657945     -0.57388673892151     -1.13334560421522
  C          -1.44802518960140      0.75947790256793     -0.36715742008919
  C          -3.28304592056694     -0.59836584047952      0.50484883244217
  C          -3.26308650505102     -0.68391563736000     -1.03420274142787
  C          -1.30993810729815     -1.78865433842179     -0.28031413885274
  C          -2.51537590002297      0.68022490481846      0.73645163746677
  C          -2.34922330313194     -1.77996328601013      0.87929769596783
  C          -0.03549359144086      0.86187197322189      0.23857308589559
  C          -1.70605702232565      1.96926074825890     -1.28065102956725
  C          -2.72472973499419      1.56534873975711      1.70121242973905
  C           1.11840642742682      0.71105278156328     -0.76482875872064
  C           2.45055276365637      0.79932659422778     -0.08689556571300
  C           3.31331443386871     -0.18942886618594      0.15457800118174
  C           4.57314494205385      0.09396256684283      0.92159973267989
  C           3.13551703850959     -1.62172114789175     -0.25998749038439
  H           6.48423905110763     -0.28856988539320      0.67508675692668
  H          -1.31592351747981     -0.58059297548866     -2.14132961969889
  H          -4.25543902660817     -0.62935793896005      0.99354716145744
  H          -3.80284228604213      0.12764178019949     -1.51940617242184
  H          -3.64254138404412     -1.63507400223680     -1.41216962608069
  H          -1.39567251672541     -2.70048196351366     -0.87357882387512
  H          -0.28326748075304     -1.73627019481330      0.07531070463035
  H          -1.89036879373357     -1.63393375644278      1.85695235101326
  H          -2.91509353036951     -2.71252560886282      0.91346568383619
  H           0.05252510781158      1.82868800513406      0.74239485373621
  H           0.08308613161405      0.11231952733299      1.02244694361056
  H          -1.57561827724898      2.89879888878731     -0.72374647291757
  H          -1.01507966129375      1.97761905412164     -2.12543630215051
  H          -2.71980042840959      1.96690130259510     -1.67857077344910
  H          -3.51425867141450      1.42918855008279      2.43072114175264
  H          -2.11984160191287      2.45873747743631      1.80239868739952
  H           1.01624347651371     -0.23219311831781     -1.30093317841026
  H           1.05354229019534      1.50265753144186     -1.51649869096206
  H           2.71382603494733      1.79011175498435      0.27706492536621
  H           4.58075833198816     -0.50624637374647      1.84259703425196
  H           4.60958380883271      1.15134874323600      1.20432593001819
  H           3.09626001943452     -2.27081763310249      0.62126925817812
  H           2.22871424070216     -1.78534269915299     -0.83777441842107
  H           3.99056555325865     -1.94884871966078     -0.85439781474468
