39
Coordinates from ORCA-job 12315492 E -585.889750156943
  C          -0.53455985721183      0.29869459649875     -0.08386891925253
  C           0.32065296101872      1.50670575951378     -0.53129611144730
  C          -1.48756056942557      0.59538547676430      1.07883067060773
  C           1.23954021001967      2.03604445636341      0.57705445017635
  C          -2.42167293882638     -0.58792935279038      1.34102417509569
  C          -1.28626118175382     -0.29131871431002     -1.24581909237713
  C          -0.51707252405479      2.64839915966094     -1.11110185754883
  C           2.18435057327063      0.99845340587656      1.20556349732592
  C          -3.22349917095039     -0.94230463798338      0.11334036794201
  C          -2.50787622713556     -0.82655225991221     -1.15264344887010
  C           3.06978463591836      0.33663256785663      0.19386774903250
  C          -4.49186091095011     -1.36042197028865      0.17321647489446
  C           3.20934043583118     -0.96433094487359     -0.06877285819088
  C           4.13753280175065     -1.43781910558854     -1.15363375102307
  C           2.48893506430072     -2.06879521534540      0.65273002547061
  H           0.17220431744059     -0.46861605849923      0.25340542719382
  H           0.96590160912447      1.12926346962968     -1.33259681137303
  H          -0.92178557502090      0.82777427582865      1.98310765310481
  H          -2.09052751857474      1.47587096577057      0.84284886241397
  H           1.84213915400793      2.84677062986045      0.15436455083733
  H           0.63701776046590      2.49257318406248      1.36797076105762
  H          -1.81586061447794     -1.45816230769954      1.62180306604147
  H          -3.08780277178991     -0.38115900947418      2.18047015241490
  H          -0.79002690716361     -0.26469480849293     -2.21112823517332
  H          -1.12584076668385      3.13017563509283     -0.34310727589599
  H           0.12990105679629      3.41497142636998     -1.54260510587401
  H          -1.19011774303607      2.29614082620813     -1.89441700759422
  H           2.80744345142972      1.51898366053048      1.94197225307450
  H           1.60986165838773      0.26213620312272      1.76781723806870
  H          -3.00240499462027     -1.20557795775526     -2.04077413411611
  H           3.65554486795412      1.02839731840859     -0.40913271456853
  H          -5.03616043387409     -1.63710916243027     -0.72169816805459
  H          -5.01945859305352     -1.44026608533559      1.11547614753408
  H           4.90776227641550     -2.10234162329653     -0.74875819062234
  H           3.59301676880404     -2.01606079931541     -1.90746312451908
  H           4.63276758718127     -0.60536193472654     -1.65375673527882
  H           1.85364683024223     -1.71364474619448      1.46098498060430
  H           1.86577635891715     -2.63942646892966     -0.04343321327735
  H           3.20709391932647     -2.77663485417715      1.07825825216647
