50
Coordinates from ORCA-job 12311071 E -1227.763592547041
  O           0.75809236370267      4.43078670269568      0.85144397366850
  O          -3.53935820216472      3.45165313111984     -0.28009154182195
  O          -3.64513496436108     -3.26326876858895      0.18845114292795
  O          -1.57785946283827     -3.55387650412420     -1.45601028655075
  O           3.76954150571393     -1.36513849046955      1.74557231025965
  O           5.42090497060394     -1.08822618469635     -0.44845314354386
  C          -0.02168542152054      2.12935682083778      0.43624668360873
  C          -1.48872768041847      2.50964280604588      0.68505504571636
  C           0.10459485331595      0.94145856317151     -0.54081596575793
  C          -2.19070465616687      1.33160773807410      1.35621070424331
  C          -0.92719251263533     -0.14744788434830     -0.27141494768804
  C          -2.00035894996635      0.04184042144331      0.59493144283592
  C           0.84268680596099      3.30462698101108     -0.02011009807630
  C          -2.23376418134657      2.95629542377063     -0.57448132740131
  C           1.51617894182417      0.39038832844001     -0.55024608301709
  C          -0.80429791414482     -1.36261379870308     -0.95450714744529
  C          -2.93076365225603     -0.99088241588577      0.76798210749998
  C           2.02175093043599     -0.27464424294398      0.56654635643178
  C           2.34300407519158      0.53156707926919     -1.65624578148142
  C          -1.71906000637375     -2.37797506456059     -0.78124298061686
  C          -2.79797505336117     -2.19002530893254      0.09567548581996
  C           3.31345541959624     -0.77171235051058      0.59873483514042
  C           3.64396878518750      0.03815468019686     -1.64301385703338
  C           4.14325857539798     -0.60664906186109     -0.52086669572032
  C          -4.77366054429103     -3.14957081131055      1.03836696345796
  C           4.02215351166417     -2.76884978582148      1.65170878573545
  H           1.18982819723530      4.20460346242994      1.68248642790867
  H          -3.44365121965859      4.24653054051492      0.25637933022230
  H          -2.31601416893256     -4.12537540319609     -1.20403194718858
  H           5.87537421448124     -0.90391913816480     -1.27799551692637
  H           0.37842023105978      1.79613901845645      1.40263526889877
  H          -1.48868713249773      3.36105251343945      1.37274344565451
  H          -0.08847529146097      1.32601846733389     -1.54976793922660
  H          -1.80053230339397      1.21844917606212      2.37445494848463
  H          -3.25634391058513      1.54618057613913      1.45370712566629
  H           0.51656360282289      3.66681933284947     -0.99631543355511
  H           1.88058182913923      2.97746512064553     -0.12749058647185
  H          -2.39281574594845      2.11523072052159     -1.25013926977867
  H          -1.65686063680313      3.71491107100320     -1.11261377468054
  H           0.02614177789706     -1.53098092594753     -1.62754035480965
  H          -3.76585150139348     -0.82952308337064      1.43570597030143
  H           1.40359559760529     -0.43198613714204      1.44138802186424
  H           1.97508519358303      1.03453081381701     -2.54203934732590
  H           4.28089025575066      0.16272120692116     -2.51249562374418
  H          -5.42726687733946     -2.33361391333070      0.71736497407515
  H          -5.30747678383072     -4.09400741776543      0.96359987482941
  H          -4.46990180211566     -2.98285783694548      2.07578899354148
  H           4.34329151386900     -3.08645505674663      2.64178695420805
  H           3.10738610045320     -3.30219819253717      1.37578131788511
  H           4.80698232331313     -2.98329391830623      0.92506215897595
