49
Extracted from remain_result/Batch_006/12315349.out
O  -0.3989530000 -1.2194500000 0.3465500000
O  0.5340560000 -0.2081570000 -1.5544110000
O  -1.8116200000 0.5161510000 0.1108340000
O  4.4481440000 0.7732830000 1.5585650000
O  -2.6300270000 -3.0022260000 0.3694750000
O  -5.1402730000 -1.7250700000 1.0331180000
O  -5.4149030000 0.9179740000 -0.1155520000
O  2.7433990000 -4.0442700000 -0.4576940000
O  -1.9635580000 3.1657540000 -1.0138790000
O  2.3269000000 2.9975200000 1.4962890000
O  0.5765940000 3.5150100000 0.2585410000
C  1.9355890000 -1.2029800000 0.2028940000
C  2.2625870000 0.2369080000 0.6861410000
C  0.6461090000 -1.2675250000 -0.6009280000
C  3.7595750000 0.4723650000 0.3296860000
C  3.1888610000 -1.6550500000 -0.5101330000
C  -1.6678110000 -0.8682990000 -0.1185290000
C  4.1827620000 -0.7819030000 -0.3691670000
C  1.4087540000 1.2976300000 0.0501300000
C  -2.7301850000 -1.6235500000 0.6676040000
C  -4.1026880000 -1.0775510000 0.2866140000
C  -4.1876010000 0.4391960000 0.4052610000
C  -3.0310520000 1.0757710000 -0.3669860000
C  3.2606270000 -2.9639850000 -1.2308060000
C  0.6896320000 1.0354680000 -1.0452280000
C  -2.9439390000 2.5830650000 -0.1825850000
C  1.3881930000 2.6721140000 0.5790940000
H  5.3483380000 1.0565550000 1.3598750000
H  -3.4616810000 -3.4169690000 0.6316390000
H  -5.0153570000 -1.5191270000 1.9691880000
H  -6.1141410000 0.3289070000 0.1948770000
H  3.2839480000 -4.1402810000 0.3347940000
H  -1.1333410000 3.2793350000 -0.5192240000
H  2.9670220000 2.2865630000 1.6699760000
H  1.7604870000 -1.8636260000 1.0541020000
H  2.1731540000 0.2838890000 1.7721050000
H  0.5670470000 -2.1743620000 -1.2014170000
H  3.8659760000 1.3338500000 -0.3391120000
H  -1.7695190000 -1.0926100000 -1.1889410000
H  5.1843550000 -0.9179570000 -0.7603300000
H  -2.5389290000 -1.4381940000 1.7348870000
H  -4.3070870000 -1.3505430000 -0.7523990000
H  -4.0845460000 0.7203170000 1.4657310000
H  -3.1505710000 0.8574960000 -1.4369760000
H  4.2890540000 -3.1574930000 -1.5544030000
H  2.6385750000 -2.9332150000 -2.1288950000
H  0.1524550000 1.7879060000 -1.6029930000
H  -2.7490690000 2.7941090000 0.8751480000
H  -3.9142750000 3.0108700000 -0.4416670000
