13
Coordinates from ORCA-job 123388 E -915.441220119152
  S          -0.13114552337418     -1.14217569956021     -0.40113109359585
  S           1.27758794335240      0.29406294805334     -0.80509314293727
  C          -1.36510082326701     -0.26274732626696      0.63120368198440
  C          -2.11094181521386      0.84167678478432     -0.09737427005986
  C           2.39167643566244      0.19147106281628      0.63355679986755
  H          -2.04192766536782     -1.06103951252263      0.94786557068208
  H          -0.86238287358089      0.11148151901669      1.52373554135923
  H          -2.83032663737071      1.32097690371377      0.57165025181432
  H          -1.41624412023195      1.60464476208588     -0.45060175060730
  H          -2.65003386406099      0.44559549166625     -0.95885119606581
  H           1.87420869012047      0.47126498217387      1.54939693893430
  H           2.80275933768969     -0.81181573396018      0.72359772770596
  H           3.19835291564244      0.90233681799957      0.44614194091826
