16
Coordinates from ORCA-job 123494 E -954.747487395310
  S           0.10986808915578     -0.57665832237432     -0.95802780370946
  S           1.83408040934496      0.48015399464803     -0.62605370203970
  C          -1.04592768733603      0.00161367007268      0.36594419742388
  C          -1.36399059924874      1.48245425569718      0.24049952212234
  C          -2.28782263147253     -0.87851145589666      0.25867391709282
  C           2.71290349650687     -0.54080211200005      0.60173095369410
  H          -0.54552791778254     -0.19269947977252      1.31662573259516
  H          -2.01200876697460      1.79867037967944      1.06286520949936
  H          -0.45482359841491      2.08268134745921      0.27422155457201
  H          -1.87730779985618      1.68700285451180     -0.70113030570116
  H          -3.00543103209847     -0.60013610483039      1.03362365065223
  H          -2.77526228488724     -0.74799992681694     -0.71028325487889
  H          -2.04485749431154     -1.93487073516460      0.38059517444700
  H           2.16186338628096     -0.58513005668440      1.53932900834922
  H           2.87660533760750     -1.54342202778276      0.21226970533424
  H           3.67414109348671     -0.05307428074569      0.77296044054686
