27
Coordinates from ORCA-job 12366272 E -839.265802431051
  O           0.00057979486781     -0.93201171792433     -0.00475845095929
  O           2.91471771082279     -0.30757322871189      0.47080466016760
  O          -2.90851731553758     -0.29621396028386     -0.47543436033489
  O           5.68073130423320      1.88434759066640      0.70679430150122
  O          -5.67293449195495      1.90008561388520     -0.68817952104433
  C           1.13088953037204     -1.72261411992139     -0.34923403514130
  C          -1.12992899053162     -1.72653575690592      0.32949473552371
  C           2.28817968944829     -0.83658942857386     -0.60493461839155
  C          -2.28763113998234     -0.84369873722759      0.59427522217196
  C           2.88482570280893     -0.40538685235249     -1.75559840222408
  C          -2.89009712788522     -0.43214548176684      1.74908063602743
  C           3.92911329004861      0.48235316782426      0.00075112007397
  C          -3.92521510349210      0.48580453323491      0.00285512276745
  C           3.94563862452210      0.44739236435992     -1.36581614967110
  C          -3.94873970252321      0.42751570266672      1.36852171692385
  C           4.74751790561218      1.16456177628578      0.98685217428311
  C          -4.73819884125321      1.18522095310311     -0.97564669351798
  H           1.36736942352309     -2.41792664856241      0.46750878124460
  H           0.92579466035138     -2.31262953264129     -1.25078206794890
  H          -1.36536343577359     -2.41257620288278     -0.49540943037852
  H          -0.92604292627948     -2.32688218762803      1.22447596168031
  H           2.58731006315798     -0.66767714922582     -2.75693342625404
  H          -2.59772659711218     -0.71152503401975      2.74730161473365
  H           4.64165592568231      0.97729724625698     -1.99327280990820
  H          -4.64780930904052      0.94687629778160      2.00137362228327
  H           4.44947998057003      0.97517724448183      2.03650552525816
  H          -4.43465262465476      1.01385454808155     -2.02681522886608
