22
Coordinates from ORCA-job 12377 E -1033.352355992009
  S           0.88275923637790      1.23911772161279      0.62965391055371
  S          -0.86032086272702      1.30849331930208     -0.44693849884085
  C           3.24922988849868     -0.14078632248853      0.39831258500882
  C          -3.24534233648544     -0.05612779795588     -0.36239333315394
  C           1.87742240380184     -0.02159848475624     -0.25650215764984
  C          -1.87157488147497     -0.02782167874179      0.29852049804192
  C           4.12472397111707     -1.18029140170425     -0.30012044213425
  C          -4.13407819871140     -1.15461753715348      0.21920376706396
  H           3.74456150449146      0.83393152114266      0.37928339572148
  H           3.12723618375531     -0.40788758780210      1.45182671524641
  H          -3.72762773862866      0.91698872685955     -0.23502155233553
  H          -3.12772636897628     -0.20715288347671     -1.43919106106290
  H           1.34832849208914     -0.97486255980738     -0.21988331091718
  H           1.96423984348843      0.28664543501454     -1.29862532270386
  H          -1.35567587820576     -0.97850249604820      0.15689026156933
  H          -1.95339749541410      0.16592279976795      1.36826012780175
  H           5.10286373807890     -1.25303977196193      0.17856529276825
  H           3.66288977299838     -2.16986318852462     -0.26876822638918
  H           4.28399345288245     -0.92008020335153     -1.34900622808195
  H          -4.28917936306401     -1.00949743988849      1.29070940846711
  H          -5.11346367009991     -1.16119948102343     -0.26243311644097
  H          -3.68560969379201     -2.14073468901498      0.07789528746771
