22
Coordinates from ORCA-job 12375 E -387.437716373474
  O           1.77707053789007      0.25177548131373      0.00451818120377
  O          -1.77702916207327     -0.25179355185164      0.00455523527376
  C           0.57663603640983     -0.49096331116574      0.00424332342043
  C          -0.57660016295313      0.49095993168790      0.00426551419137
  C           2.93740467414918     -0.56040803318884      0.00456402659903
  C          -2.93737743476905      0.56037523898344      0.00463682819339
  C           4.15756856824322      0.33484054627938      0.00352038837410
  C          -4.15753594208153     -0.33488118087100      0.00352617178476
  H           0.51557297925200     -1.13589330657106     -0.88285982202525
  H           0.51519474583569     -1.13615897681186      0.89112585719683
  H          -0.51557847263461      1.13590921599966     -0.88282395351684
  H          -0.51516046338208      1.13611442699930      0.89117955615482
  H           2.93428287270020     -1.21191911587040      0.89030106018079
  H           2.93347636624738     -1.21313537015795     -0.88025159564703
  H          -2.93427620101738      1.21183454679018      0.89041135326523
  H          -2.93344596524740      1.21315374150229     -0.88014015815061
  H           4.16445908704686      0.97421869821286      0.88752917290800
  H           5.06856258002981     -0.26684495128646      0.00396413143137
  H           4.16421953455437      0.97254185551671     -0.88170977047779
  H          -4.16444328632128     -0.97431181243821      0.88749617946441
  H          -5.06852885312113      0.26680372607700      0.00399432786189
  H          -4.16418003875776     -0.97252679914929     -0.88174500768644
