22
Coordinates from ORCA-job 12370 E -313.148762133318
  C           0.61213259026610      0.55380592476013     -0.01843607239735
  C           1.83551671582189     -0.35887403149646      0.00346943298151
  C          -0.70815782178853     -0.20997832886452      0.01010106516679
  C           3.16076225793573      0.39954984260522     -0.02460322694490
  C          -1.92730928322905      0.72492438492225     -0.01220562148077
  C           4.37768101531845     -0.52160518667612     -0.00338038061254
  C          -3.19730775786140      0.01175286656953      0.01474385803814
  C          -4.23068301484593     -0.59885906987189      0.03712067268385
  H           0.65524903587288      1.23735883247903      0.83729879850272
  H           0.64769607589017      1.18508294008650     -0.91375716225971
  H           1.79985005308621     -0.99075652367534      0.89824502705317
  H           1.79245353104851     -1.04277631602268     -0.85185455706196
  H          -0.76547543636771     -0.88824310471891     -0.84561386715622
  H          -0.75765977952493     -0.83638639181633      0.90493121414346
  H           3.19459395805214      1.03110476154393     -0.91869673350061
  H           3.20245797123362      1.08210957033503      0.83082796736971
  H          -1.88026968253341      1.40654932472863      0.84341542237363
  H          -1.88825296702310      1.35448738352957     -0.90720877360226
  H           4.38530436286654     -1.14180865877363      0.89651280645304
  H           4.37726332073913     -1.19277826846379     -0.86595595269870
  H           5.30988347708756      0.04625429002042     -0.02403524908388
  H          -5.14629062204488     -1.13682124120057      0.05702833203289
