44
Coordinates from ORCA-job 12389 E -551.448276262599
  C           0.64260510707508     -0.41227928482747      0.00272295604036
  C          -0.64332270381787      0.41041641268206      0.00684240003837
  C           1.91038274363476      0.43811258993033      0.00968018929568
  C          -1.91103916950910     -0.44005137984774      0.00081951974745
  C           3.19633336369782     -0.38455913726641      0.00476547188487
  C          -3.19699589869131      0.38263439115925      0.00414494664904
  C           4.46403716925635      0.46600909448967      0.01253883524334
  C          -4.46478412202659     -0.46784002098671     -0.00133975163524
  C           5.75005782173220     -0.35637864362891      0.00745013401572
  C          -5.75073132009031      0.35467064087215      0.00153073874612
  C           7.01879772316510      0.49358941717450      0.01502937411206
  C          -7.01949990070170     -0.49526233077194     -0.00394922458617
  C           8.29831792031766     -0.33880811496027      0.01025904811458
  C          -8.29901162036849      0.33716693187451     -0.00140273205095
  H           0.64890545730672     -1.07762415823380      0.87371855615021
  H           0.65064912548577     -1.06602296382314     -0.87700008346484
  H          -0.65110573728359      1.06462707092308      0.88622397823680
  H          -0.64984839258284      1.07534527355255     -0.86446446629638
  H           1.90385375203709      1.10386263923652     -0.86101127081634
  H           1.90252857235375      1.09147056729717      0.88968889388123
  H          -1.90300340830756     -1.09467966585992     -0.87825108701014
  H          -1.90468704881226     -1.10456289739975      0.87244267679296
  H           3.20263657666170     -1.05071966916470      0.87513290573511
  H           3.20439760122181     -1.03750165891352     -0.87553045646182
  H          -3.20487559380408      1.03754601991882      0.88299532105173
  H          -3.20345245852721      1.04682431830646     -0.86771413297138
  H           4.45758753779642      1.13226539415237     -0.85778688552562
  H           4.45584994732792      1.11883047012507      0.89296006184665
  H          -4.45668981661661     -1.12295899674225     -0.88006601015766
  H          -4.45833512318686     -1.13180827938558      0.87071808491943
  H           5.75730195593599     -1.02276370960195      0.87787101129447
  H           5.75888131000774     -1.00948206494642     -0.87295654486409
  H          -5.75955999530130      1.01004112036544      0.88026211387406
  H          -5.75785733144092      1.01885174550597     -0.87056365032799
  H           7.01095799673224      1.15853826636648     -0.85519878240582
  H           7.00912855240745      1.14570848962194      0.89488932607722
  H          -7.00979746730237     -1.14959453299165     -0.88217056535536
  H          -7.01173093804063     -1.15805030530719      0.86791774355887
  H           8.34693756769514     -0.98922500804033      0.88736287148131
  H           8.34834176233558     -0.97698860809170     -0.87571127872120
  H           9.18835158978571      0.29365347410878      0.01535360156475
  H          -8.34927515836139      0.97734360326982      0.88311106027217
  H          -8.34735832371560      0.98560659064491     -0.87998830394268
  H          -9.18906562548142     -0.29527309078653     -0.00537359403092
