53
Coordinates from ORCA-job 12398 E -669.359259915214
  C          -0.00006778276653      0.39050554244121      0.01734742581017
  C          -1.27724679992377     -0.44492935747122     -0.01929735640062
  C           1.27667672236152     -0.44562188894428     -0.01824614561175
  C          -2.55387941594018      0.39136840462274      0.01628934210293
  C           2.55374037116639      0.38999585205112      0.01799717378160
  C          -3.83111362556806     -0.44394541068526     -0.02038968272618
  C           3.83053570911692     -0.44605097293522     -0.01725856043941
  C          -5.10769534732469      0.39244083640738      0.01480992955565
  C           5.10755604936469      0.38963863647238      0.01886202112243
  C          -6.38499689678594     -0.44287566317714     -0.02165980418062
  C           6.38443622350101     -0.44638096285414     -0.01619890242237
  C          -7.66157231386896      0.39336321712954      0.01331998981859
  C           7.66141074786465      0.38919260271124      0.02005519451735
  C          -8.93990764616257     -0.44129741658348     -0.02344374997166
  C           8.93939093595248     -0.44605087668832     -0.01531259141422
  C         -10.20987474302069      0.40484194561117      0.01205359912339
  C          10.20967627935482      0.39956359672453      0.02071464096355
  H           0.00046221667400      1.08728274597806     -0.82874002334448
  H          -0.00029287854082      1.01166798202822      0.92040758965722
  H          -1.27708724708236     -1.06612950956988     -0.92233649861888
  H          -1.27782162157215     -1.14169613727781      0.82679769291583
  H           1.27633343456331     -1.14217762876294      0.82802192822710
  H           1.27678667536171     -1.06700912665284     -0.92115205184699
  H          -2.55401091893809      1.01253983902395      0.91934895040050
  H          -2.55323028883758      1.08818926915967     -0.82976073266565
  H           2.55416858600162      1.08638397911562     -0.82841342781197
  H           2.55349322892643      1.01160902853125      0.92074793638781
  H          -3.83083787497304     -1.06531023955919     -0.92331623080948
  H          -3.83185512755892     -1.14057592021751      0.82581763680890
  H           3.83015752377534     -1.14238449599262      0.82919892452698
  H           3.83072402399942     -1.06772973039978     -0.91996337490354
  H          -5.10789025546804      1.01392113633859      0.91764297145626
  H          -5.10694185207036      1.08891840535819     -0.83151039623371
  H           5.10800334250481      1.08585574621628     -0.82767617565138
  H           5.10722678927401      1.01140165696316      0.92149697189528
  H          -6.38468943498203     -1.06446352961378     -0.92445293261372
  H          -6.38566405492683     -1.13926077968943      0.82476889118942
  H           6.38385550777057     -1.14268981314103      0.83030411610198
  H           6.38469548475171     -1.06808178432176     -0.91890989178750
  H          -7.66269765024018      1.01504662838231      0.91624222709793
  H          -7.66140484353340      1.09011631449111     -0.83301590649385
  H           7.66244773556834      1.08593644333095     -0.82629910775322
  H           7.66183717470174      1.01094596726360      0.92292492458149
  H          -8.93804849453226     -1.06173119858332     -0.92598335049160
  H          -8.93923620572866     -1.13688436055547      0.82253312016636
  H           8.93779109125322     -1.14122178700093      0.83100715115765
  H           8.93791577701047     -1.06693968267474     -0.91754184570792
  H         -10.25291229670533      1.01052562000811      0.92090840369244
  H         -10.25074461426344      1.08757674296482     -0.84054563608375
  H         -11.10706747150616     -0.21679988951518     -0.01619280511698
  H          10.25134020417051      1.00710684009324      0.92839702722819
  H          11.10663584119401     -0.22253572683134     -0.00462785304035
  H          10.25243202663734      1.08057591028019     -0.83316774614521
