33
Coordinates from ORCA-job 124039 E -768.682169443565
  O           0.22245508958414     -1.66220764978041      0.37454586705739
  O          -1.69763381492721     -2.74105033724352     -0.04553421830579
  O           4.20629937039878      0.57160511617275      0.30985877541195
  C          -0.34780669094634      0.56177823590456     -0.22513132727890
  C          -0.58014783626068      1.95748543380906      0.34898113795132
  C           0.64968453685107     -0.29476946227145      0.60102330114672
  C          -1.57983054550884     -0.29851854396692     -0.06519787889957
  C          -1.89059732981299      2.53608140218244     -0.19126567550540
  C          -2.82627789426535      0.15842200074652      0.09832034168285
  C          -3.08955870428188      1.64323055499073      0.14424383598040
  C           0.07013125102519      0.62227478070642     -1.70287158691051
  C          -1.11290101799343     -1.69851961366705      0.06976985891996
  C           2.09615846491113     -0.16506875198030      0.28550615405901
  C          -4.02098020942968     -0.71801406191363      0.31537325617192
  C           2.84472420463148     -0.86502289148985     -0.72012511557565
  C           2.97483722523236      0.68496808153444      0.87789416023816
  C           4.10816840153921     -0.38233662062897     -0.65856135068423
  H          -0.63844738814786      1.89286083721197      1.44043094254414
  H           0.25863582220952      2.61495235293149      0.10808796436233
  H           0.48803838850085     -0.07306786000432      1.66067774075817
  H          -2.05550322614321      3.53576094159950      0.21522670045575
  H          -1.81483419374374      2.65612914585889     -1.27378397177959
  H          -3.45126152258338      1.86667417536697      1.15621090246543
  H          -3.93156177899682      1.87678605719599     -0.51532686461111
  H           0.99614880355134      1.18598384884532     -1.82117162387015
  H           0.22757046436859     -0.37719271347425     -2.10946561161212
  H          -0.70816872557326      1.09674829463330     -2.29900667653036
  H          -4.55573645575067     -0.40858214742476      1.21844569562094
  H          -4.72123685845982     -0.59869556601286     -0.51752795202556
  H          -3.75376683036168     -1.76778390355059      0.39037797488408
  H           2.47711313082625     -1.63772199335252     -1.37243111283085
  H           2.88443419196697      1.39633334851390      1.68006258583527
  H           5.01280367758997     -0.60294449144287     -1.19667322912602
