44
Coordinates from ORCA-job 124052 E -1074.929542689614
  O          -0.41683652135885      1.18440682997952      0.58578411157211
  O          -4.67831325150968     -0.88275986003978      0.32594084986894
  O           3.31969078424806      1.21409955311545     -2.16230305569341
  O           7.28357123734900      0.14055860635948      0.22152646847713
  C           1.61340801956322      0.07926624090782     -0.22903289878588
  C           0.96445714372183     -1.29624010502305     -0.05069896561158
  C          -0.53550604993666     -1.17757387128520      0.05895448233421
  C           0.98902166092787      1.03761014086162      0.78352328297189
  C          -1.13577296605546      0.04500521803567      0.36768292545372
  C          -2.53080354785977      0.17694021891632      0.44953234970292
  C           3.11681074087963      0.06794430305551     -0.09783881419418
  C          -5.32757552054420      0.39850846492868      0.09095358808467
  C          -3.32498118550571     -0.95017062589691      0.20857067322109
  C          -1.36885547751329     -2.27513984668500     -0.15590783013415
  C          -3.19771196701384      1.40794803710441      0.83533578544519
  C          -2.74991708236193     -2.18139077546343     -0.08184542117369
  C          -4.52092092604879      1.51369037705569      0.70761426051924
  C           3.93261773514632      0.65197748251476     -1.07707126909288
  C          -6.69467209924613      0.26552478196932      0.74705516089926
  C          -5.45400791951308      0.59916998890565     -1.42209272704738
  C           3.75655597321363     -0.48522404098526      1.00797238745124
  C           5.31744999190339      0.66415252063799     -0.95643666438853
  C           5.13796408205629     -0.48030681567712      1.15353119559132
  C           5.92049935742042      0.09755596950612      0.15968635736064
  H           3.98671667831620      1.56994309814828     -2.75953341488324
  H           7.58073391821904     -0.28025897370956      1.03608507476082
  H           1.35589683892941      0.45431600380649     -1.21980803893097
  H           1.22991242435986     -1.94223048395279     -0.89071190280391
  H           1.36524914199194     -1.77957378583106      0.84585218459750
  H           1.40288055516072      2.03979432178940      0.68532976204470
  H           1.17234255536341      0.68255206631411      1.80482736507659
  H          -0.91583267637111     -3.22838003475296     -0.40375390513368
  H          -2.60056045385827      2.21388977825709      1.23848502598738
  H          -3.38725228315586     -3.03760022006590     -0.25391341122210
  H          -5.05192229337849      2.40962281460846      1.00470221698079
  H          -6.58666212674887      0.10582067620732      1.81996868987031
  H          -7.27934214546659      1.17239773349264      0.58434984077320
  H          -7.23579705390960     -0.57931942448542      0.31974389014580
  H          -5.95280131947858      1.54584665116442     -1.63744442241845
  H          -4.46641350461239      0.62139611867466     -1.88392289436421
  H          -6.03373110707347     -0.21379410030581     -1.86336334238735
  H           3.15924225432431     -0.94068499410705      1.78763170070496
  H           5.94000597209324      1.11255307401562     -1.72173266257512
  H           5.59992641333280     -0.92295511206620      2.02819401094509
