54
Coordinates from ORCA-job 124034 E -1603.692233162060
  O           3.61614814167127     -0.67722949985552     -0.73205343090204
  O           3.09893014504632      1.60402186336485      2.06453619872708
  O           5.88009432526769      0.86644054999658      2.39368943515713
  O           7.13717696538535     -0.04590855496342     -0.04153230217667
  O           4.67300448037685     -1.65317335871039     -3.10375196686200
  O           1.81376722437217     -1.85036923421499      1.23346917723623
  O           1.16162040190820      2.16529539453764     -1.13333968547710
  O          -2.59718540024172     -0.45037950735615      0.20007894135406
  O          -1.24172623172855      2.89862711232832     -1.66762309851498
  O          -8.84330255661923     -1.09869584027645      0.34364508263546
  C           3.68880863692441      0.51904222921637      1.36852111056382
  C           5.17607269768330      0.74841075031486      1.14843164751252
  C           3.00106709026462      0.38682942688331      0.00148774146046
  C           5.78415504172313     -0.33364472663333      0.26906722282234
  C           4.98874727093037     -0.43877369800043     -1.03016828001133
  C           1.51803989391122      0.15661059265301      0.06392922090628
  C           5.43668087017041     -1.58755834229140     -1.91290155809727
  C           0.66297893958416      1.08719798629974     -0.52369849192193
  C           0.94508263773217     -0.97214735662616      0.68355250019302
  C          -0.74575308373693      0.91080864050810     -0.49057722782978
  C          -0.43401103835096     -1.17254487896142      0.72680488886542
  C          -1.25207944299561     -0.22187040812354      0.13980475531288
  C          -1.65022787743832      1.87181690398432     -1.09079399194699
  C          -3.47527211749689      0.43111635927031     -0.34431925293611
  C          -3.05163332513375      1.55839152616033     -0.96367397644033
  C           1.31552118021684     -3.03239289327353      1.83970843334470
  C          -4.86731002043313      0.01486979878262     -0.16375421063950
  C          -5.90164102651155      0.60535136104737     -0.90297674803832
  C          -5.20181253573559     -0.98189662571562      0.75832207750316
  C          -7.21696619333138      0.22622135896787     -0.72426360064371
  C          -6.51903144382113     -1.36679494672755      0.94607523851039
  C          -7.53370058824415     -0.76342923246816      0.20653436092049
  H           3.71895035707168      1.87893253977506      2.75144531320895
  H           5.77345403657822      0.03797858862029      2.87983724773818
  H           7.54902713672904      0.30461004092446      0.75848407652571
  H           3.74531574544634     -1.59529629319196     -2.84144804340475
  H           0.37992868693464      2.68905587092760     -1.47288418505165
  H          -8.93880305367073     -1.79170709676435      1.00741375428144
  H           3.55008379109292     -0.41500091527005      1.92512593892861
  H           5.31782036968493      1.71751316037109      0.66270763063255
  H           3.16192066058685      1.32775013666026     -0.53171756121061
  H           5.70993052817082     -1.29959573314050      0.79413051431797
  H           5.08894687969416      0.50425402345211     -1.58510280364141
  H           5.35774143862894     -2.52262560989150     -1.34117223989696
  H           6.47767057688981     -1.44466624618232     -2.19881573665045
  H          -0.88101723393828     -2.03367265263005      1.19521037363243
  H          -3.76098328324862      2.26413608252769     -1.36619337477034
  H           0.67165377667693     -2.80172293108052      2.69276400067471
  H           0.76508737670447     -3.64329261992076      1.11972190422018
  H           2.18997008185029     -3.57973029247705      2.18278964798953
  H          -5.67453843085950      1.35991950286136     -1.64290739884767
  H          -4.42284143422521     -1.45330597832100      1.33907285164385
  H          -8.01189230778493      0.67848163395602     -1.30132129051414
  H          -6.76026676036236     -2.13706896132339      1.67007916960648
