75
Coordinates from ORCA-job 12444418 E -1206.848732280082
  O          -3.33958002670183      0.96820020001652     -0.36205555394582
  O           1.89391069063223      2.56839458225698     -1.06192883528595
  C          -3.84107431690140      0.59579709368450      0.94360082681633
  C          -3.38024774730223     -0.83508628129823      1.26392796186925
  C          -1.68588373191622     -3.34954748925558      0.61659512468926
  C          -3.82433884584871     -1.89887881302502      0.26253034704475
  C          -3.31532892738319      1.59503683086288      1.97885110799732
  C          -3.21841138021707     -3.28229605869116      0.52346255378547
  C          -0.99914415414790     -2.72305642180098     -0.60177471768560
  C           0.51101544890941     -2.54397005870470     -0.45495857450796
  C          -1.79043324312809      1.63806614318846      2.00468148480793
  C           2.62301781949979     -1.51143350584286     -1.55499613517367
  C           1.10669742910528     -1.74383861361953     -1.60974563802439
  C          -5.35341148342816      0.70232578630219      0.81976020263245
  C          -1.22720800563010      1.68688546227641      0.60840824897357
  C          -2.02552987938406      1.33720282823024     -0.48047072385404
  C           3.03213667055612     -0.76394090973966     -0.27828658850031
  C          -1.24535473970359     -4.79718651675616      0.84237615559543
  C           4.51944004963968     -0.44169475106501     -0.15215354195418
  C           3.06783480184835     -0.77339012592024     -2.82034141538515
  C           4.85413228311834      0.21243406396005      1.18673805869311
  C          -1.52328858790898      1.38579466695027     -1.78714374898953
  C           0.08734385528349      2.09009013075097      0.38212033249566
  C           6.34010975098835      0.51557126950156      1.41437629988278
  C          -0.21359967760525      1.80433842132247     -1.98149056178100
  C           0.59293896087645      2.15722381737150     -0.90405200410178
  C          -2.39752171523168      0.98716861343494     -2.93955730999618
  C           6.57286187135065      1.00479533346297      2.84485366761546
  C           6.88712274826931      1.52951166302148      0.40732977504521
  H           2.12119330809587      2.55807718109673     -1.99802680199328
  H          -2.29167572572492     -0.83123828277198      1.31631214544290
  H          -3.73526934952829     -1.09303056617666      2.26741994241995
  H          -1.37587427817056     -2.77380725286783      1.49650545741983
  H          -4.91231552317445     -1.99712404337161      0.28113404707907
  H          -3.56918056038820     -1.56231593288228     -0.74353846833039
  H          -3.70401530683388      2.58225411964065      1.71606179593657
  H          -3.71341301359632      1.34114736578792      2.96321394837802
  H          -3.55020624867600     -3.96029704228725     -0.27100937292880
  H          -3.63305148216405     -3.68428887378745      1.45468177925990
  H          -1.21996494207546     -3.32745989225262     -1.49028661271366
  H          -1.42847827917028     -1.73663564561873     -0.79254869047700
  H           0.70340464352987     -2.02983456344347      0.49085503878219
  H           1.01089455750378     -3.51515627618295     -0.38692023130318
  H          -1.45041602787653      2.50940036438271      2.56850396555043
  H          -1.39414436776727      0.76482076880921      2.53206598894537
  H           3.11816772309126     -2.49175012274546     -1.54593836996468
  H           0.86699958475928     -2.25433340601130     -2.54951900880161
  H           0.60788303686239     -0.77082551091651     -1.65686026433652
  H          -5.83445777525255      0.35338893038870      1.73515375819309
  H          -5.64370833998018      1.73899004042927      0.64614503713564
  H          -5.71727276951950      0.10396245865797     -0.01405508220683
  H           2.46227034039129      0.16811672324368     -0.21819875887355
  H           2.73781071894526     -1.35936189016416      0.58995616030429
  H          -1.75019572299278     -5.22906393356055      1.70964915412340
  H          -1.49107373483085     -5.41442657244090     -0.02678911147592
  H          -0.17097599502854     -4.87368169605723      1.01298776061887
  H           5.10780417391947     -1.36065738475934     -0.26580039484705
  H           4.82193473622398      0.22079545728004     -0.96508903618665
  H           4.15251488918853     -0.69142562108006     -2.89188645951833
  H           2.71286611832034     -1.28753982433122     -3.71618407321309
  H           2.65431323555435      0.23933464125743     -2.83408350600813
  H           4.28386003130449      1.14450806692438      1.28086022597280
  H           4.50440908776838     -0.44076310222701      1.99402345040268
  H           0.72189953839149      2.36830314589632      1.21431220928264
  H           6.89474113236174     -0.42247915271640      1.28476230610693
  H           0.18461413532614      1.84398582397985     -2.98999459984865
  H          -2.74288377097242     -0.04339775375159     -2.82934307121917
  H          -3.29279712872845      1.61048354245784     -2.99039212719075
  H          -1.85927643885106      1.07227256669980     -3.88322808615682
  H           6.22089816729569      0.27401769016031      3.57657893192352
  H           7.63272256581035      1.18870089599334      3.03500932890269
  H           6.03575016494612      1.94079828272009      3.02437222935045
  H           7.93865154638539      1.74869829251811      0.60591471971579
  H           6.81327889072125      1.16767185151734     -0.61890386333306
  H           6.33240953696680      2.47047477168769      0.47084281092168
