26
Coordinates from ORCA-job 12444328 E -390.567669506027
  C          -0.44930286751337     -0.22107049478414     -0.12401416954644
  C           0.73647315847315     -0.71872884402999      0.67682188451395
  C           0.24706253304693     -1.50616583753518     -0.51186851646059
  C           1.89850602499580      0.25571384325816      0.49098552251512
  C          -1.87439602243078     -0.24520706409152      0.39029445370097
  C           0.08275940894468      0.97417667889378     -0.84859379126709
  C           1.35446840131772      1.22020924001176     -0.54214530692424
  C           3.22699067264947     -0.39588458396199      0.10027478027429
  C          -2.14469539992245      0.92643702319133      1.33635538463939
  C          -2.88339938750716     -0.27924959215425     -0.76040119805471
  H           0.58260040009736     -1.15559380946057      1.65514565758987
  H          -0.26970539455906     -2.43342799221244     -0.29487379418638
  H           0.83213351448298     -1.51629484075325     -1.42216307850176
  H           2.05838040446567      0.79613442971537      1.43304178020236
  H          -1.98874406391648     -1.17358181320038      0.96139224961353
  H          -0.50480438260592      1.53825089612373     -1.56151420807996
  H           1.96518959462143      1.99585800514078     -0.98742430208891
  H           3.56533145366805     -1.08315591037305      0.87831416923047
  H           3.12728063918369     -0.95947917695965     -0.82897934018176
  H           4.00537392610905      0.35670098894738     -0.04453738345039
  H          -1.43500200430941      0.93189015983119      2.16589350701218
  H          -2.04848493923906      1.88028775060937      0.81212134249872
  H          -3.15391544103078      0.87240134439990      1.75029586768283
  H          -3.90451091626841     -0.36900825852511     -0.38346271797332
  H          -2.83195487706238      0.63630491972070     -1.35492463558458
  H          -2.69003343569070     -1.12218306180195     -1.42655815717359
