29
Coordinates from ORCA-job 12443330 E -467.040309171736
  O          -1.95275400432215     -0.47860045536884      1.39042055334035
  C          -1.96990670796811     -0.03491454646031      0.02139393929348
  C          -1.12215539776463     -1.05180712059200     -0.73928398207087
  C           0.30144345189284     -1.11953487002219     -0.19225489279914
  C          -1.32428652903943      1.35240881794134     -0.09481436907031
  C           0.92661207073054      0.24145431461280     -0.02333144637378
  C           2.43162665916062      0.32186419786301      0.11195558517240
  C           0.17185725245941      1.33787280046959      0.02470688166601
  C          -3.40822187666345     -0.01360599007184     -0.48666855286749
  C           2.95040212297998     -0.54542271966229      1.26610700068182
  C           3.14466863923187     -0.03540077825919     -1.19975574810213
  H          -2.39829740913560      0.18345285589111      1.93032202299599
  H          -1.59879507026480     -2.03284210212825     -0.67884631630015
  H          -1.10263499432878     -0.76032063338490     -1.79302475715722
  H           0.28976815142664     -1.62683878040895      0.77668720444217
  H           0.91590454472909     -1.73755815568899     -0.85206822127786
  H          -1.61353774657043      1.80447039208217     -1.05138775634372
  H          -1.75580233681531      2.00655042370577      0.67338827409175
  H           2.67447635442189      1.36367865123916      0.34337802053999
  H           0.65392074493347      2.30286117592352      0.15462186111089
  H          -3.99618713050772      0.73728340178801      0.04911888116894
  H          -3.44872256732601      0.22696534173389     -1.55096137992244
  H          -3.87344815948339     -0.98774192292999     -0.33069909233495
  H           2.45181942164982     -0.29143178751135      2.20321734538715
  H           2.78184555569725     -1.60690626878072      1.07227315804493
  H           4.02474028076278     -0.40133363268993      1.39983413083575
  H           4.22435317801605      0.09490453777610     -1.09619584886272
  H           2.96604435642243     -1.07524202298006     -1.48193819139214
  H           2.80095214567514      0.60047987591333     -2.01739230389669
