28
Coordinates from ORCA-job 12453628 E -466.832247092610
  C          -0.95248955272229     -1.59024777091101      0.23758029731285
  C          -1.07451875398207      1.43307812234299      0.26917972058190
  C          -2.14102558735848     -0.79878320053661      0.78901871810834
  C          -2.29292591134569      0.53009288061682      0.06248720483583
  C           0.29306049442327     -0.72853298259713      0.16072794761568
  C           0.24034933105021      0.67224701844287      0.15182959856085
  C          -1.26739048251396     -2.22657513393424     -1.12526108903708
  C          -1.15664336524064      2.64093135825327     -0.67019194040369
  C           1.53502023241185     -1.36458860744239      0.09244429874638
  C           1.44412741566941      1.38201250501679      0.08831578633249
  C           2.71766211930387     -0.64904631170550      0.01902622059422
  C           2.66967500416589      0.74016160727596      0.01915981372029
  H          -0.73780595456694     -2.40921482438524      0.93158411859025
  H          -1.12400302086865      1.81175259691954      1.29901559721278
  H          -3.05362675457125     -1.39392573812606      0.70208172883562
  H          -1.98621497432898     -0.60937498457279      1.85615024645090
  H          -3.18812826156045      1.05580164138500      0.40365715902927
  H          -2.43148039028981      0.35350964319033     -1.00865955754114
  H          -2.13503529898187     -2.88651967481646     -1.05055484617550
  H          -1.47931497111319     -1.46729350885397     -1.87962899865122
  H          -0.42225647077300     -2.81517304124950     -1.48448246357340
  H          -0.39697892916698      3.39195743436724     -0.45630579056716
  H          -1.03547809110352      2.32690020877813     -1.70945490556875
  H          -2.13141382284806      3.12422402690753     -0.57358607134630
  H           1.56634694133179     -2.44843629247571      0.10680801387080
  H           1.42358583235927      2.46365684404392      0.09903205023858
  H           3.66710455756122     -1.16701539994128     -0.02940917038532
  H           3.58241666505905      1.32052258400751     -0.02902868738749
