16
Coordinates from ORCA-job 12454408 E -271.706641148530
  O          -1.67347187516654     -1.28534611786265     -0.05311065056860
  C          -0.05176553034125      0.55729443254585     -0.25911556977954
  C          -1.42361179036112      0.07796677849048      0.24074302094587
  C           0.10213214847321      2.06412388291138     -0.03647438238222
  C           1.03257298784915     -0.21678995788626      0.43115488214234
  C           1.75147794326753     -1.18883363427953     -0.11971118687991
  H          -0.90912473390816     -1.79624950882839      0.24368880438219
  H          -0.00747333864842      0.34185084096963     -1.33117343619365
  H          -2.21248996832884      0.64487766493989     -0.25679192001317
  H          -1.50519254303766      0.27025324928633      1.32036536448341
  H           0.04634488827137      2.31035990645157      1.02715656967628
  H           1.06343990359376      2.41837592530151     -0.41077973582191
  H          -0.68734152838782      2.61632091411693     -0.55037871265590
  H           1.19667901007292      0.03600315418679      1.47757665477475
  H           2.50434626723434     -1.72811546723427      0.44146522225719
  H           1.62107215941752     -1.46727806310927     -1.15966592436714
