43
Coordinates from ORCA-job 12468617 E -1111.044918793215
  O           1.30954335579963      3.05336888423147      1.14808116004622
  O          -2.16519662961903      3.48945203319956     -0.98380738666091
  O          -3.81468453593055     -1.16797551535925      1.50457807314661
  O           4.17546416890410     -0.48775501262792     -1.34070407429636
  O          -3.36956917108531     -2.80605286062005     -0.67788625914845
  O           3.70549827594981     -2.71611888421700     -0.03346577417219
  C          -0.48084055147224      2.05719808924994     -0.08736480665705
  C           0.53368181631652      1.85231381500669      1.05634408490039
  C          -1.29776402834656      0.80186200682593     -0.29031464916410
  C          -1.33460857391004      3.29524202640084      0.15911553721361
  C           1.40026237614689      0.63822496236918      0.82909500608729
  C          -2.24586072403424      0.39522371468111      0.64584209111924
  C          -1.07161842161648     -0.01935610621879     -1.38675144817491
  C           2.40988411582535      0.67873415975994     -0.13742508417332
  C           1.17121560463461     -0.54097370370016      1.51615043725664
  C          -2.94172398619970     -0.79623875157681      0.51400520099063
  C          -1.75913268830404     -1.21635132081993     -1.53632491506147
  C           3.17772833768864     -0.44110713100989     -0.42014243967583
  C          -2.68932556428652     -1.62137475349201     -0.58882101782776
  C           1.93268899356312     -1.67270764696006      1.23712154842496
  C           2.92980855696360     -1.63799656772321      0.27810258468386
  C          -5.19214917673716     -1.19449492391287      1.12815844267737
  C           4.45212343073968      0.68911500685276     -2.07755433144375
  H           2.03915242918877      2.88562750720435      1.75492360531471
  H          -2.65103791729901      4.31240960950023     -0.87248115023927
  H          -3.09346966948118     -3.26577515848394     -1.47844886621973
  H           3.43490008136027     -3.46286429982821      0.51241222630081
  H           0.09686323168559      2.23969238344453     -0.99719911074055
  H          -0.02628573551931      1.70597256430939      1.98856281046841
  H          -0.68022548974971      4.15458565408253      0.31969720369990
  H          -1.94306675862587      3.15775710497097      1.06246517989302
  H          -2.46464099536277      0.99588581463802      1.51940378662221
  H          -0.33675004802829      0.26755383490633     -2.12743988488949
  H           2.58462786348940      1.60526625329995     -0.66395978039366
  H           0.38266096310391     -0.59430014066176      2.25508020675627
  H          -1.56208823245104     -1.85221463585546     -2.39321168296758
  H           1.74636791488994     -2.59763979364419      1.77243492463162
  H          -5.74721289272067     -1.47205109397911      2.02238442323547
  H          -5.51450352318539     -0.20422172419159      0.79124380271093
  H          -5.37498565048768     -1.92721697777179      0.34087112530434
  H           4.76049886829439      1.50891240337694     -1.42143756366432
  H           5.26935813572590      0.43638590231022     -2.74893834574569
  H           3.58435444418270      1.00695827203310     -2.66389589016813
