27
Coordinates from ORCA-job 12482226 E -428.726410234087
  C           1.15316817458275      0.71327617743227      0.04435642805276
  C           2.08165715574970     -0.52304009545604     -0.03436401871346
  C          -0.30958545326645      0.32130889738619      0.01324416910994
  C           1.45137676092863      1.75412243513271     -1.04395171314047
  C           1.76855360130860     -1.52196377709194      1.08138951712738
  C           3.56127738517585     -0.13512767988479      0.00965435497710
  C          -1.13911560820878      0.57465599463538      1.10324206310294
  C          -0.86615446579251     -0.30148590883928     -1.10539168223150
  C          -2.48276420213626      0.21724417629103      1.08446072861276
  C          -2.20640577318036     -0.66266673523904     -1.13057112728361
  C          -3.02193869621777     -0.40469099126796     -0.03391923735862
  H           1.33876898322483      1.18567383033941      1.01591444399299
  H           1.89056861828686     -1.01620618121443     -0.99478165019054
  H           0.72924698200572      2.57039991532156     -0.99716157922327
  H           2.44772454276134      2.18057306644439     -0.92936692236741
  H           1.38744914487069      1.31128810827252     -2.04064518079918
  H           1.93410744795729     -1.06670541585212      2.06242183276263
  H           0.73379939481794     -1.86161783882716      1.04295430785121
  H           2.41640273235844     -2.39782976385967      1.00900264590662
  H           3.78537302500361      0.43313008086197      0.91747250948430
  H           4.18965665854318     -1.02802777761711      0.01638688909834
  H           3.85830645817911      0.46943842501787     -0.84706194420323
  H          -0.72446564553307      1.05527773158771      1.98167562823856
  H          -0.24575869981247     -0.51062358838402     -1.96811653538065
  H          -3.10672779357124      0.42379296044924      1.94507403476005
  H          -2.61635693291646     -1.14652342683206     -2.00841137735081
  H          -4.06708479511919     -0.68590761880663     -0.05269658483483
