17
Coordinates from ORCA-job 125 E -421.953537438975
  O          -3.13160256199025      0.56904530469876      0.66874733639654
  O           3.19084693381841     -0.02723763690710      0.19986223392574
  C          -0.94912795083290     -0.03491915031292     -0.26174007868704
  C          -0.20614933259009     -1.21327137380278     -0.28071693180328
  C          -0.26934822405531      1.16939990052025     -0.07845823069184
  C          -2.44586102830129     -0.05043038927484     -0.42090933738490
  C           1.17358164424452     -1.20311420471564     -0.12929807161496
  C           1.10726394350887      1.19634269124447      0.07997450091403
  C           1.83386414633820      0.00660677548041      0.05208690144749
  H          -2.79905288862255      0.18125044670821      1.48652504042702
  H           3.52573784591227      0.86868484733833      0.31861457279213
  H          -0.71507800067293     -2.16044519917893     -0.41733404476151
  H          -0.82993992795299      2.09546746162928     -0.04873629637659
  H          -2.78935946474196     -1.08201325719816     -0.56184673042754
  H          -2.74957742297393      0.51963899162788     -1.30132736899991
  H           1.74782860334686     -2.11967527309400     -0.14470307218446
  H           1.62169868556507      2.14095706523676      0.22089057702907
