28
Coordinates from ORCA-job 12504268 E -391.809747496792
  C           0.73202290649106     -0.02304637062726     -0.33652335952038
  C          -0.00429056569227     -1.29041505753976      0.11884329025067
  C          -1.47746998135350     -1.26516602241546     -0.27801537719225
  C           2.14011593213191      0.11031325294876      0.29547867067667
  C          -2.21971243926466     -0.10223550480744      0.38231639600566
  C          -0.11840472368909      1.19338020708536     -0.06716156417169
  C          -1.40306547855588      1.15698843951183      0.27657936970451
  C           2.96093537492719     -1.17333472700689      0.14273717488973
  C           2.92661578164910      1.28452725220041     -0.29409758647520
  C          -3.61733406037438      0.09182317991675     -0.21052432772311
  H           0.88812475768753     -0.09299577339733     -1.42417610654107
  H           0.47622370800252     -2.17560385259502     -0.29950758844437
  H           0.07363995579285     -1.37347623988989      1.20923317377967
  H          -1.55621660871692     -1.15996287073615     -1.36616725347284
  H          -1.95968559153074     -2.21128306461918     -0.01803380139983
  H           1.99662995618723      0.29693353701976      1.36689217216813
  H          -2.34506105179526     -0.33665377394033      1.44903582497925
  H           0.36218471952278      2.16061929027628     -0.15329772301393
  H          -1.92108127093787      2.09011322000039      0.48032897072953
  H           2.51381208704303     -2.01744794812924      0.66680509482186
  H           3.05987564754056     -1.44618961142339     -0.91234158101147
  H           3.96707231733847     -1.03198105877165      0.54259065828672
  H           3.91682021536727      1.34888762509905      0.16151441148271
  H           3.06597252229197      1.15105851135752     -1.37094822697945
  H           2.43371875840557      2.24352288141322     -0.13761263115985
  H          -4.15443478847706      0.89668252797134      0.29622824159261
  H          -3.55367290706941      0.34686783957716     -1.27129545071957
  H          -4.21082817292200     -0.82047788847882     -0.11688687154267
