20
Coordinates from ORCA-job 12507 E -424.105418346031
  O          -2.77552078380412      0.28779958889281     -0.07581371520738
  C           1.39634458799101      0.16327007333475      0.01353017534580
  C          -1.42030149294699      0.18131231948032     -0.04225706450105
  C           0.67446336169333      1.36076762742617     -0.08209444038239
  C           0.66196214352057     -1.02259902213285      0.08027736919772
  C          -0.70687380058556      1.37792637672918     -0.11003447473750
  C          -0.72485268650753     -1.02552336348506      0.05360434969091
  C           2.85994750704193      0.20885181852243      0.03862560175838
  C          -3.54623825105573     -0.89990485115321     -0.01056048747421
  C           3.70663186173363     -0.81747699742380      0.12415888775076
  H           1.21540569729949      2.29819168772743     -0.13555425435308
  H           1.17713513891304     -1.97125053839757      0.15506746602455
  H          -1.25579567163493      2.30721324752256     -0.18405972041219
  H          -1.25175060020611     -1.96659782776435      0.10769268443788
  H           3.27845834367871      1.20989776880543     -0.02091403828351
  H          -3.36834608238357     -1.44012664629347      0.92410910550017
  H          -4.58629437758121     -0.58527452204205     -0.05260303038648
  H          -3.33286576276310     -1.56086493480335     -0.85595140579281
  H           4.77587042041949     -0.65522210206969      0.13378170346125
  H           3.37419344717766     -1.84620770287568      0.18714228836318
