28
Coordinates from ORCA-job 12512776 E -503.936298829487
  O           2.33706754009439      1.49105491770150      0.36566069502478
  C           0.08678545917973      0.65315591269130      0.21209964479848
  C          -0.39171205892253     -0.69888526503020      0.82005346285776
  C           0.09724679802479     -1.90254437631718      0.00891511678864
  C          -0.59089228726126      0.87800087258641     -1.16430881121322
  C          -1.91658551463956     -0.70921742694582      0.98774892951855
  C           1.60568616312697      0.59955431630957     -0.00247168779458
  C           1.61897839705386     -1.92720854480001     -0.09157066713106
  C           2.16053744634863     -0.62886000410656     -0.70022766188219
  C          -0.25983770151150      1.81503164118435      1.14486750480215
  C          -2.05219336549181      0.53900598418146     -1.16267757956716
  C          -2.64318548146445     -0.17333265481335     -0.20972864049445
  H           0.05760841997855     -0.77665258299712      1.81669329978639
  H          -0.25614304803256     -2.81937606291951      0.48797035400010
  H          -0.34729938877908     -1.88625311516951     -0.99054530793919
  H          -0.45213563713831      1.92421106147749     -1.45230635745818
  H          -0.09765075388873      0.29428147072340     -1.94770901463733
  H          -2.24755215916561     -1.73231860860857      1.19198910670747
  H          -2.20458599717679     -0.12995936867492      1.87219921848065
  H           2.04323045043226     -2.05540717369800      0.90956870810611
  H           1.95436862933218     -2.78086434911063     -0.68462343128950
  H           1.87616392776579     -0.58060431153949     -1.75636265036223
  H           3.24760835913195     -0.57496851179030     -0.65265191559454
  H           0.12491170587900      1.63550042905820      2.15006556911819
  H           0.18941838027425      2.73881888533962      0.78440536182089
  H          -1.33875181347702      1.95350518883022      1.20371845520396
  H          -2.63555861781631      0.89932293342383     -2.00360164980561
  H          -3.70771285185684     -0.37229225698620     -0.27383005184489
