15
Coordinates from ORCA-job 12514 E -631.565847351304
  S          -0.00007615528647      1.26643711459557      0.19601733076567
  C          -1.25755364931460      0.08459865193746      0.01937541430327
  C           1.25736326869787      0.08458393108645      0.01908234435721
  C          -0.71228618755819     -1.15061992027614     -0.16540495399464
  C           0.71203096354569     -1.15062718250256     -0.16565004928531
  C          -2.70059520597944      0.46665217223023      0.07672144145566
  C           2.70043330643815      0.46661739307063      0.07603874219294
  H          -1.31395563126303     -2.03962646062293     -0.29830617384344
  H           1.31366077996400     -2.03963615190499     -0.29874572088422
  H          -2.96362806623832      0.92052376707690      1.03533397500580
  H          -2.96388651702210      1.18095214806632     -0.70723172654906
  H          -3.32063283188281     -0.42056034965267     -0.05578608206170
  H           2.96361801484999      0.92096909335635      1.03438812557994
  H           3.32042244051477     -0.42069091813252     -0.05610008478660
  H           2.96363547053450      1.18051771167190     -0.70831758225553
