54
Coordinates from ORCA-job 12532 E -761.593098585737
  N          11.13188163397747     -0.76205710756037     -0.02452495040007
  C          -1.25957767725266      0.44860048143192      0.00595327358592
  C           0.03088429320744     -0.36682924774560     -0.00750842032910
  C          -2.52224675907838     -0.40926443177910     -0.00520596218965
  C           1.29350194500649      0.49109429506793      0.00322515599974
  C          -3.81291536919697      0.40586080614566      0.00765731061474
  C           2.58364594131882     -0.32480607325603     -0.00955604269135
  C          -5.07551428974422     -0.45210781587855     -0.00359104162939
  C           3.84587566725748      0.53364266716250      0.00087226381518
  C          -6.36632719500719      0.36278141979634      0.00871514844921
  C           5.13525439604143     -0.28354000212789     -0.01172179690770
  C          -7.62883347944578     -0.49541427594087     -0.00211055281754
  C           6.39619589087909      0.57688677192255     -0.00125121924932
  C          -8.91981554004620      0.31905180499695      0.01061579512288
  C           7.68014012554419     -0.24679262617701     -0.01383511038312
  C         -10.18326947370035     -0.53868414759332      0.00017962672694
  C           8.93351889855526      0.64190767655269     -0.00327548903614
  C         -11.46785800740869      0.28571254960273      0.01256071902281
  C          10.17041676523080     -0.13079432239456     -0.01518825671804
  H          -1.26952082161182      1.09505396787194      0.89100258015290
  H          -1.27151834102712      1.12081753903579     -0.85966779185480
  H           0.04307164253538     -1.03878564693514      0.85826391434636
  H           0.04074924092429     -1.01349402018704     -0.89235842555049
  H          -2.51197990611070     -1.05610972656585     -0.88995605533503
  H          -2.51038695455458     -1.08115915308456      0.86065467709017
  H           1.28175976145828      1.16265022075462     -0.86288113145377
  H           1.28356368965778      1.13808910785669      0.88785153420059
  H          -3.82318823500357      1.05261847290660      0.89249981401044
  H          -3.82472807819655      1.07789811640909     -0.85811767063778
  H           2.59579648340013     -0.99610517506685      0.85663007523486
  H           2.59375831192803     -0.97188138685675     -0.89400915115854
  H          -5.06490815388219     -1.09921803027223     -0.88816635446074
  H          -5.06375336428729     -1.12388261183958      0.86238412641866
  H           3.83427454232319      1.20464285913459     -0.86557003559529
  H           3.83613302625050      1.18062110591969      0.88541759588318
  H          -6.37679563184178      1.01013140719124      0.89311785812330
  H          -6.37815601354836      1.03430261488690     -0.85745618579481
  H           5.14804745026577     -0.95407602927516      0.85465686759189
  H           5.14616930078137     -0.93005454705878     -0.89619261323861
  H          -7.61839960629309     -1.14249217508160     -0.88673111045314
  H          -7.61662327444627     -1.16709775115855      0.86395085717059
  H           6.38523650210595      1.24691792772448     -0.86834500536467
  H           6.38699653377837      1.22296390598092      0.88385141694585
  H          -8.93087420349155      0.96656570880795      0.89512297349828
  H          -8.93284650578459      0.99083408835978     -0.85557385291774
  H           7.70727546687965     -0.91154311110074      0.85319918173297
  H           7.70523944273030     -0.88788528001756     -0.89856481971344
  H         -10.17125937693564     -1.18527143061742     -0.88372271407324
  H         -10.16955565926451     -1.20897451225288      0.86621972912397
  H           8.93462238882657      1.30575471912194     -0.87211377270610
  H           8.93674246629225      1.28194943798600      0.88323940946507
  H         -11.52029820740551      0.91779380326133      0.90274706405385
  H         -11.52202643781165      0.94144909872994     -0.86023889822990
  H         -12.35394524477910     -0.35220393679478      0.00489746250917
