41
Coordinates from ORCA-job 12530 E -661.410575684555
  O          -7.69494779743431      0.59055396308186     -0.03528695960073
  O          -6.63438609471738     -1.35346586705281     -0.02251124915226
  C           1.08325342633620     -0.32332329617082     -0.00197372102919
  C           2.37535181013031      0.48960843704667     -0.00047244216322
  C          -0.17742405002070      0.53751359807843     -0.00856580207801
  C           3.63621052040258     -0.37101105246179      0.00617515891853
  C          -1.46889962728692     -0.27620307123383     -0.01034800198121
  C           4.92847065658508      0.44177390070725      0.00759720957507
  C          -2.72919179304891      0.58515012573249     -0.01702009139377
  C           6.18944798911337     -0.41849773013894      0.01392387541236
  C          -4.01557475676510     -0.23613423057502     -0.01883039583760
  C           7.48278330085508      0.39356368589711      0.01590870171296
  C          -5.26519595739704      0.63435783282333     -0.02574988582399
  C           8.73698730976787     -0.47648480390459      0.02183014561235
  C          -6.55787603075622     -0.15957895622554     -0.02747792581431
  H          -7.47878365787384      1.53192403514201     -0.03868039487825
  H           1.07335522226358     -0.98535454611568     -0.87529216618387
  H           1.06790149652756     -0.97994768599246      0.87533760989368
  H           2.39049845224572      1.14623372994299     -0.87795547283041
  H           2.38501617328654      1.15171791726265      0.87295890912300
  H          -0.16778854586346      1.19934411547736      0.86509557846071
  H          -0.16213908483460      1.19415088940967     -0.88606170540680
  H           3.62105133927899     -1.02762676357646      0.88357316318257
  H           3.62648406322474     -1.03317738968267     -0.86712274606796
  H          -1.47972317329411     -0.93782158457813     -0.88360623063672
  H          -1.48543732832430     -0.93260383059372      0.86675063208408
  H           4.94337053742086      1.09856313256745     -0.86978528622661
  H           4.93815500562949      1.10379837947908      0.88111227625028
  H          -2.71846709263300      1.24704348416642      0.85689467579984
  H          -2.71270116883810      1.24184034528636     -0.89476901244904
  H           6.17503966557983     -1.07585371898404      0.89104991995983
  H           6.18063067941719     -1.08051440569826     -0.85976732009614
  H          -4.03699905396916     -0.89671132847315     -0.88878026032511
  H          -4.04291114622171     -0.89131474514035      0.85501647069864
  H           7.49620413659128      1.04999036230640     -0.86069728594874
  H           7.49085946874580      1.05417567200890      0.88943132642382
  H          -5.27498203777067      1.29697165394169      0.84778031545925
  H          -5.26906161274568      1.29154503890804     -0.90341500187500
  H           8.76437617960381     -1.11997366179342      0.90491473353193
  H           8.76997033498529     -1.12393241273875     -0.85815717704316
  H           9.64532924180404      0.12934778186425      0.02339983274317
