50
Coordinates from ORCA-job 12531 E -779.319692293288
  O           7.03889147850109      0.51160511228034      0.03671562713677
  O           8.42103432767373     -1.26333890844221     -0.02064695985242
  C          -1.72323318146082     -0.42234800016746     -0.01473122596178
  C          -3.00614035503958      0.40469299849658      0.00890924638051
  C          -0.45272423408339      0.42334588570620      0.01649153916974
  C          -4.27671095708075     -0.44095442174079     -0.02220676757609
  C           0.82984733661271     -0.40418631704855     -0.00756258340034
  C          -5.55974581308016      0.38593199596404      0.00097894100348
  C           2.09970743392336      0.44220656676562      0.02361408958396
  C          -6.83034860090148     -0.45977358178569     -0.02973694163934
  C           3.38142981881634     -0.38699933499630     -0.00099620498469
  C          -8.11348760124786      0.36679635983174     -0.00686433442593
  C           4.64712022995433      0.46749264361549      0.03031505504305
  C          -9.38511896318924     -0.47831693461141     -0.03715611723131
  C           5.90202020124654     -0.37780050918215      0.00467057947736
  C         -10.66173797738224      0.35821570742107     -0.01415635128252
  C           8.25390314226590     -0.07082078517821      0.01937337995151
  C           9.34777390551771      0.96243024814280      0.05684031363871
  H          -1.72068555262189     -1.11022081564179      0.83854488451154
  H          -1.71591536579681     -1.05274982328218     -0.91127778416011
  H          -3.01336158561280      1.03520650819078      0.90541026540507
  H          -3.00864284954118      1.09249431715863     -0.84446205629509
  H          -0.45517133042488      1.11131547587456     -0.83669780235965
  H          -0.45969277044422      1.05351489874105      0.91319555005906
  H          -4.26927375226800     -1.07170319008077     -0.91853425935117
  H          -4.27427804489625     -1.12857223240020      0.83130317315404
  H           0.83257578249610     -1.09207292187844      0.84562862888229
  H           0.83702925947165     -1.03423048000999     -0.90429436642829
  H          -5.56704624413174      1.01691398063599      0.89715065593120
  H          -5.56228438059647      1.07333003905182     -0.85271519371576
  H           2.09795024907716      1.12989677290443     -0.82950079076158
  H           2.09383638434541      1.07164748875136      0.92055066720177
  H          -6.82284857552357     -1.09090800101345     -0.92582637256347
  H          -6.82779194591762     -1.14701371961195      0.82411116059945
  H           3.38310774843849     -1.07428450706743      0.85229054764417
  H           3.38714809427237     -1.01603820501192     -0.89807319120021
  H          -8.12157824756131      0.99838283216594      0.88910935638107
  H          -8.11687621284592      1.05408741517767     -0.86088747860028
  H           4.65731488385294      1.14930696131725     -0.82509613377860
  H           4.65357960218453      1.09061902644428      0.92941161873371
  H          -9.37621994725206     -1.10886405858603     -0.93260119473452
  H          -9.38100849217751     -1.16427334457204      0.81662284210322
  H           5.96003729407648     -0.99060430665077     -0.89710559789779
  H           5.95644934230768     -1.04940308477867      0.86379682267725
  H         -10.71122969437062      0.97450341751221      0.88719806602684
  H         -10.70646607958894      1.03021643891031     -0.87503880370596
  H         -11.55390473143431     -0.27082210268904     -0.03645487066089
  H           9.25474937687406      1.56940010224066      0.95863789731004
  H          10.31496672713249      0.46796079576182      0.03940850487428
  H           9.25531786743062      1.63316459736479     -0.79861203031232
