20
Coordinates from ORCA-job 12575 E -610.514890444790
  O          -2.87097634177131     -0.72687476583849      0.28455714359345
  O          -1.83608978714969      1.84220182647784     -0.00706140751517
  O           3.53875161476727     -0.89881194458914      0.24500370023166
  O           3.15862795852667      1.11335508533353     -0.59643744786224
  C          -1.53667533311521     -0.50978584654380      0.13362119932686
  C           1.23946049879498     -0.17569922178321     -0.04491187325438
  C          -0.98494047304216      0.77704168441656     -0.00309207768860
  C           0.38723811940810      0.92570825968916     -0.10890424939437
  C          -0.68321510085806     -1.60460971579751      0.18716606634963
  C           0.69259411076860     -1.44834770901361      0.10670730655819
  C           2.70300882333103      0.08853659129390     -0.16543738252316
  C          -3.73354290342755     -0.28196836291341     -0.76985930376754
  H          -1.32760484432326      2.65676965725616     -0.09558852170644
  H           3.04175611455736     -1.60396600953352      0.67819963891075
  H           0.82534855365713      1.90948215157630     -0.22946809921463
  H          -1.12855804819714     -2.58484491748531      0.29043771519891
  H           1.31444834362388     -2.33504177454048      0.11240452149308
  H          -4.72469702811322     -0.64969431589463     -0.51467747487184
  H          -3.74670985653071      0.80413611044169     -0.84423381835644
  H          -3.41801642090671     -0.71553078255204     -1.72292263550771
