19
Coordinates from ORCA-job 12581 E -403.047000310799
  N           4.44581103290369      0.07323097403894     -0.03507241982432
  C           1.03720707956680      0.02525448188597      0.69962520902100
  C          -0.43173851812903      0.00793329249574      0.37030556687881
  C           1.89610409154412      0.04098654450097     -0.58379263574779
  C          -1.13613954893479      1.19868139103221      0.19800180159744
  C          -1.10596760209549     -1.19886019408791      0.18928182846142
  C          -2.48144353946613      1.18557046554181     -0.14855675962394
  C          -2.45120908153855     -1.21707987843202     -0.15728505218879
  C          -3.14262867399772     -0.02363173822570     -0.32845611432928
  C           3.32517377767094      0.05880691776942     -0.29361709826237
  H           1.28270258187560      0.90391152260728      1.29809967024773
  H           1.30485973443798     -0.85145524537161      1.29141927804064
  H           1.67269723627740     -0.83726818993922     -1.19376328199178
  H           1.64971689187727      0.91736554950346     -1.18759552082161
  H          -0.62785780448999      2.14506790183425      0.34340153186349
  H          -0.57401012199634     -2.13317755670258      0.32785297919659
  H          -3.01444268610749      2.11953257762886     -0.27321634045463
  H          -2.96055515469317     -2.16322059533193     -0.28877112654782
  H          -4.19149969470510     -0.03586122074793     -0.59511351551477
