31
Coordinates from ORCA-job 1260558 E -983.311217467986
  O           1.65833098982647      0.20106019036205     -1.04417609106262
  O           1.22873837385337     -1.71393230037573      1.47517772893873
  O           3.80576723207645     -1.04999416567583      1.57252092035623
  O           2.70083169949065      2.75167938076820     -0.36713580490113
  O          -4.40487862925690      0.26225372860357      1.00715697896014
  N          -0.32215952821762     -0.98617013227435     -0.66276289049198
  N          -0.65824752776227      1.39329993626665     -0.05869298249218
  N          -2.37153183748511     -1.71478726474363     -0.11420353419553
  N          -2.81455094180263      1.90265116914206      0.77658757900689
  C           1.87752625098670     -1.80521265415803      0.22299829274883
  C           1.10573778069293     -1.09054742704052     -0.92238028695947
  C           3.13637518480757     -0.92734715032631      0.35012597964977
  C           2.53637031110922      0.45218971125179      0.07107542448991
  C           3.48040528722600      1.55883038903996     -0.29648676035116
  C          -1.02542678102189      0.08757272844273     -0.19367018981743
  C          -1.20655220585451     -2.05466615299263     -0.58210357665771
  C          -2.28525562024934     -0.36374526587527      0.13869437384919
  C          -3.28100464188672      0.56162477246073      0.67162714013181
  C          -1.62721139309075      2.23481972191704      0.42833906093905
  H           0.39696117396728     -2.20293461545546      1.46630980949480
  H           3.13533297800830     -1.17029901533387      2.26000173320813
  H           3.25702612765600      3.48239427131269     -0.65514927568727
  H           0.22944009582638      1.73740551823612     -0.39372127555411
  H           2.10211957559130     -2.84346602524044     -0.03214635179965
  H           1.23768134578506     -1.61939933932315     -1.86911631100732
  H           3.84556817544660     -1.18218404747661     -0.44127726276774
  H           1.95157083203598      0.76744832370201      0.94356207242551
  H           3.95498046283729      1.33604164865777     -1.25847498054521
  H           4.25214191671284      1.62950348851963      0.47756905470873
  H          -0.91773340849386     -3.04106564764973     -0.91240695650844
  H          -1.30748327881483      3.27016822525856      0.51053338189124
