39
Coordinates from ORCA-job 126072 E -1071.551199295580
  O          -4.08706218915243     -1.71965637898112      0.83839078364655
  O          -5.49781994804006      0.72969936446816      0.34474162656992
  O           2.88066738229577     -2.10117152790055      0.08196463954777
  O           0.61334231279465      2.73795735977658      0.27048749915872
  O           3.26582872352857      2.46112506131365     -0.20764097482038
  C          -3.53754101813626     -0.68728582625168     -0.00596216592459
  C          -4.09029812740821      0.66009035703717      0.47483846077740
  C          -2.01331242473037     -0.68652340925095      0.05729533451099
  C          -3.44906242112923      1.79625826329325     -0.28484504055794
  C          -1.25685227805502      0.50046689064419      0.02760685175275
  C          -1.94798265328362      1.84643988870487     -0.00934122737612
  C           0.15436395708746      0.40358008020705      0.05665576005664
  C          -4.00422532358066     -1.05118643481137     -1.41511118685460
  C           0.77036739633474     -0.87056218447603      0.08033327248300
  C          -1.37658085617639     -1.92442213588557      0.11043692895430
  C           0.00097294388615     -2.02741473000044      0.11666578567684
  C           2.20999017419955     -0.93214756396372      0.06001570105245
  C           1.02988290168911      1.61709146777774      0.09317477852499
  C           3.09007009442148      0.11295323472536     -0.01966725723400
  C           2.58920893535160      1.46697235493221     -0.06968247179767
  C           4.41712338043454     -0.44908510678312     -0.05277978373217
  C           4.22499090466443     -1.78939078504676      0.01489371601360
  C           5.70652383006099      0.29362181959198     -0.13778611249839
  H          -3.73730659661846     -1.59825057132525      1.73038698939891
  H          -5.86107490852252     -0.08275523600145      0.72062805370989
  H          -3.81326156704909      0.75381258373826      1.53884600308045
  H          -3.65018116511691      1.67708870401292     -1.35126306716405
  H          -3.90800873746675      2.73842180127554      0.01722023729544
  H          -1.45667299355983      2.49105602025110     -0.73603534274216
  H          -1.76552552166094      2.34067979298798      0.94866834477577
  H          -5.08967661831087     -1.00067453577548     -1.47969409049618
  H          -3.57670487252479     -0.37748015911998     -2.15550506905732
  H          -3.68014509139608     -2.06490001251190     -1.64838151823747
  H          -1.98464007728523     -2.81831058345758      0.14670076639130
  H           0.48510412903937     -2.99356395567915      0.14506684839821
  H           4.89526461500652     -2.63045403541483      0.02811090392360
  H           5.81242389100167      0.98220324533142      0.70217174948396
  H           6.55407216906164     -0.39187554691908     -0.13779805642825
  H           5.74423364834546      0.89964742948659     -1.04434667026216
