29
Coordinates from ORCA-job 12641386 E -653.472781116774
  O          -1.61714040854971     -0.30628461280017      0.22368583614627
  O           1.61704178156902     -0.34577194281160     -0.23837111710623
  O          -1.28068700401715      1.43976845978047     -1.16836824416619
  O           1.32296127255326      1.40809623180911      1.15350551499935
  C          -0.02153155024521     -2.08437820944060     -0.00734387816341
  C          -1.05748814994039     -1.24089892392259     -0.73790228555383
  C           1.03474722789868     -1.26648507167824      0.72321159201775
  C          -2.18875589713159     -2.05970223571777     -1.32909342193213
  C           2.14573248448486     -2.11265696694104      1.31432124672076
  C          -1.63427035407049      1.00458552185109     -0.09995645503659
  C           1.66595370614374      0.96434504042344      0.08516939025494
  C          -2.10235089313829      1.84049729498940      1.05522677419156
  C           2.15421539125182      1.78853381031830     -1.07009130253660
  H          -0.51793191549623     -2.72731407982447      0.72544635755693
  H           0.45900411116597     -2.73928061462440     -0.74011601628007
  H          -0.57345455785189     -0.65564272894626     -1.51612430202162
  H           0.56517067734087     -0.66959496165070      1.50144323354433
  H          -2.72914904880291     -2.59593837512759     -0.54664394004555
  H          -2.89027877052383     -1.41409704343604     -1.85810896076283
  H          -1.79411517395166     -2.78924329998173     -2.03897189413637
  H           1.73347755248997     -2.83241972243422      2.02417180815581
  H           2.67288546702984     -2.66183928067931      0.53181612206936
  H           2.86277411042191     -1.48433720397529      1.84333999122307
  H          -1.23307372587552      2.04019485849420      1.68626428578142
  H          -2.49342863325066      2.78569247927027      0.68686065399619
  H          -2.84787298845943      1.31565641321486      1.64984979793710
  H           2.56797647002495      2.72405837757739     -0.70182108109513
  H           2.88689119272660      1.24573664602361     -1.66456340223294
  H           1.29007362620347      2.00906214023991     -1.70124530352533
