20
Coordinates from ORCA-job 12695575 E -610.513849970540
  O           0.39724565453628     -2.07017754594964      0.03527201665540
  O          -3.76006670472243     -0.01840388589405      0.30443234995210
  O           2.30919743302784      1.57008761972152     -0.92581328996430
  O           2.58262741763618      0.05610841405813      0.66749657737538
  C           0.35986492837908      0.38437559725637     -0.14109632786571
  C          -0.24213718085380     -0.88218393696320      0.01763647179173
  C          -1.62478543211783     -0.97582883859336      0.16469018937162
  C          -0.47845375215074      1.50744865465051     -0.17945003193283
  C          -2.42092284214195      0.15694013897182      0.15149803639012
  C          -1.84738863640179      1.41650404563579     -0.03333025668088
  C           1.82822754369542      0.61231421408772     -0.08286258320562
  C           1.59105077540719     -2.29368726288353     -0.71638876121333
  H          -4.20812916745295      0.83426063501352      0.26371680179074
  H           1.61864510131187      1.83742853867870     -1.54594613249832
  H          -2.07375524762710     -1.95302014567271      0.27097088443791
  H          -0.03205811098920      2.49072422566221     -0.26152774518527
  H          -2.46201376488522      2.30842928001136     -0.03897112449161
  H           1.56076069777826     -3.34089800313613     -1.01203111528409
  H           1.60985413210937     -1.66672053498625     -1.61117581118235
  H           2.47314015546153     -2.09347720966880     -0.11351414826068
