25
Coordinates from ORCA-job 12702415 E -613.907352570982
  O          -1.22156826126152      0.00988075884876     -0.22585473123038
  O          -3.08771822266788      1.69854578340988      1.13158113605981
  O          -0.50925326782562     -1.81526425334460      0.88645574050455
  C          -2.59812338326983     -0.39450428885127     -0.05885478692996
  C          -3.41856140769739      0.88094175904625      0.02245228299589
  C          -3.01373007625692     -1.28791179092642     -1.21497178654492
  C           1.09651512779258     -0.23652916403204      0.09665379603554
  C          -0.27124047588149     -0.78116136405225      0.30623016135999
  C           2.18034814984209     -1.00579405424270      0.52041675169180
  C           1.31816769222072      1.00729060003256     -0.49549007559795
  C           3.47430179932962     -0.53822061724220      0.34968916405895
  C           2.61470999168921      1.47321178339904     -0.66213580060689
  C           3.69289172664736      0.70196107640413     -0.24190311601803
  H          -3.24640144218684      1.20363479789612      1.94320219189879
  H          -2.67133015151585     -0.94739807400037      0.88051712579988
  H          -4.48111447849254      0.60619562829207      0.02973171271349
  H          -3.23631932535515      1.49084296476872     -0.86393834629796
  H          -2.39030776686095     -2.18053406414831     -1.24290025048718
  H          -4.05291419706706     -1.60101986233632     -1.09893074678658
  H          -2.91383137941386     -0.75903803491330     -2.16473189900905
  H           1.98738989443281     -1.96497312231312      0.98063547479597
  H           0.47552233404678      1.60292334695804     -0.81430576256448
  H           4.31305171048398     -1.13837062176336      0.67792284445376
  H           2.78471597882185      2.43978018718343     -1.11855238229327
  H           4.70332843044592      1.06780462592726     -0.37394369800174
