29
Coordinates from ORCA-job 12731045 E -766.314034015718
  O          -0.08152068343795      0.48820790369691     -0.31990533553850
  O           2.03481427814380      0.45839252730802      1.97652023137296
  O          -1.36945172360207      2.33013664060380     -0.39777172067672
  C           2.29923849939018      0.45563949719763     -0.36916203860404
  C           1.08918916527703      1.32368847759133     -0.49162750331655
  C           2.74474197220891      0.03773828908927      0.89004408567614
  C           3.00676201029636      0.04012464279867     -1.49170993921033
  C          -2.40399325468736      0.20379903846018     -0.05878090135222
  C           3.86995844855556     -0.77143231345109      1.00858989712113
  C           4.13228406979677     -0.76794498322672     -1.38541585901860
  C          -1.26122714824009      1.13266120320905     -0.27406453677688
  C           4.56023515041465     -1.17241221290240     -0.12803777016133
  C          -3.68914870801989      0.74417275435383     -0.01751388914467
  C          -2.22415094718241     -1.17037919952740      0.10254622739885
  C          -4.78504819765024     -0.08142697060677      0.18231298108544
  C          -3.32344317831691     -1.99365603655754      0.30265288131493
  C          -4.60345168680657     -1.45148218768748      0.34255350224102
  H           2.45171276930650      0.13399060946811      2.78239318612650
  H           1.04005702385209      1.79462025145563     -1.47338912685453
  H           1.06754871869390      2.10497504739041      0.26650461943938
  H           2.66380591317608      0.36185277718582     -2.46777956571592
  H           4.20425798771168     -1.08610563047540      1.99129999718900
  H           4.66805451792066     -1.07682573626780     -2.27265559979786
  H           5.43504239636985     -1.80157807379023     -0.02528058223690
  H          -3.80674458469853      1.81159954095452     -0.14364567959427
  H          -1.22657385136020     -1.58356632260333      0.07139634371506
  H          -5.78094900873933      0.34133382117557      0.21344901164919
  H          -3.18205234557213     -3.05947879214248      0.42782815676309
  H          -5.45921360280034     -2.09619856270010      0.49856192690660
