78
Coordinates from ORCA-job 12795736 E -1208.976666060478
  O           8.15729609972510     -1.10095356720807      0.66702622899397
  C          -0.25615596559272      0.94551016377890     -0.32555461247293
  C           0.36603939538883     -0.38785974433037     -0.81098700252053
  C           2.54198782959727      0.05612017068816      0.40060432977836
  C           4.08060602077572      0.23259382165102      0.25215594027849
  C          -1.76484546885213      0.57885671015892     -0.38079891147507
  C           1.86237542327685     -0.37492153536339     -0.89111585335635
  C           0.32369478973086      1.21346240793748      1.06657427096016
  C           1.85372426221896      1.28536224461544      1.03271903505080
  C          -0.47002599502948     -0.78162457675614     -2.02472790507534
  C           4.61404967418355     -0.97202897890480     -0.56416036166850
  C          -1.88865995516005     -0.27324576117125     -1.67633947779154
  C           4.73484069214020      0.20368945138030      1.64820628213885
  C          -2.80525386757832      1.70913897712438     -0.31787323250274
  C           0.06891859524170      2.09443140070673     -1.29009766843877
  C           4.02854328995722     -0.97754493117586     -1.97387899381611
  C           2.54062667494755     -0.80877226581749     -1.95216279996164
  C           6.14075318609329     -1.06315601355802     -0.58774546996834
  C           4.41575007593247      1.55589381463981     -0.45913079253013
  C           6.26190693497600      0.14039941349789      1.60291804894606
  C           6.73574787649522     -1.07052120274784      0.80864033169253
  C          -4.24348031472320      1.18359713855596     -0.51098247902278
  C          -2.70738869053699      2.55846932491464      0.95336839295046
  C          -4.71877290945447      0.20550901719866      0.55874838819870
  C          -6.10448943396463     -0.37791485003585      0.38677061170697
  C          -6.43755521197428     -1.53610078328757      1.31290612195746
  C          -6.95419951819731      0.07454994034116     -0.53866486357889
  C          -5.79092672240068     -2.83795142029507      0.81524529561788
  C          -6.05993095279422     -1.26609532001970      2.77478310811408
  C          -8.34016465682659     -0.40634608719640     -0.84726520208209
  H           8.55266255030820     -1.07528706563018      1.54535195448407
  H           0.12281705514269     -1.10870417553358     -0.01498825775467
  H           2.39032018463524     -0.77396766394207      1.10666784282349
  H          -1.93878678773716     -0.07989304123598      0.47711276543281
  H          -0.05780510750786      2.14320723159475      1.48903945402594
  H           0.00231963519627      0.40907171670340      1.73768812281293
  H           2.22519753619291      1.41633334733971      2.05083457994383
  H           2.14107078478423      2.18395539420682      0.48767073442547
  H          -0.09574752023539     -0.29150845668284     -2.92505109100441
  H          -0.44216352286958     -1.85537775019012     -2.21258559030258
  H           4.23892267847886     -1.87111014500795     -0.05778087325840
  H          -2.59049101251529     -1.09573152435542     -1.53552972404876
  H          -2.28835519739246      0.33441330583410     -2.49038691605453
  H           4.42302406780875      1.07642990089784      2.22513011488869
  H           4.36153513338502     -0.67443836506682      2.18725105766454
  H          -2.61637853179421      2.37165670977244     -1.16962638816209
  H          -0.25199443937782      3.05245643467367     -0.87722774665681
  H           1.13755647986346      2.15811288938048     -1.49108388372681
  H          -0.43059937720505      1.96752983800691     -2.25071483187768
  H           4.50270900678443     -0.19891759761795     -2.58444542861219
  H           4.27841162056925     -1.92268660319560     -2.46689134010624
  H           1.99835466322447     -1.11437280212426     -2.83983161829601
  H           6.44745226390473     -1.96962980909670     -1.11570285422618
  H           6.57103271005747     -0.22305828667470     -1.13982956124765
  H           4.27487172449870      2.40713236027390      0.20702563054320
  H           5.45132862536998      1.58062358298920     -0.79473921573403
  H           3.78216512756231      1.70760978785676     -1.33311145178320
  H           6.67618282856608      1.04128849907045      1.14256880496710
  H           6.65940603432908      0.09463920118389      2.62256243444932
  H           6.40114600314403     -1.98174878263191      1.32741662612023
  H          -4.91026010718935      2.05027955282947     -0.53194975592234
  H          -4.32909582781167      0.71057279233274     -1.49119671473596
  H          -2.69682552328557      1.94050533235023      1.85348614429366
  H          -1.80491324457137      3.16766103535642      0.96370504133058
  H          -3.56064068841306      3.23707277441531      1.02579851884289
  H          -4.01064494369566     -0.62641419652505      0.62215075034882
  H          -4.66866411314016      0.69177043636159      1.53785521251860
  H          -7.51751953100916     -1.68662186809593      1.29164000499294
  H          -6.62414893701823      0.88887577499300     -1.17430512273820
  H          -6.06145885510215     -3.67554391011616      1.46264882926117
  H          -6.11574701796848     -3.07067359468326     -0.20002526486759
  H          -4.70104749707753     -2.76383922081851      0.81007113394741
  H          -6.49992098469028     -0.33275556503646      3.13185107632214
  H          -6.42278244222475     -2.07553433005758      3.41170961828053
  H          -4.97862223899747     -1.20287158917971      2.90997463406744
  H          -9.06178487973003      0.41207188541161     -0.76128700067547
  H          -8.39982347097623     -0.76365445785912     -1.88026237020961
  H          -8.67589507186585     -1.21547794179843     -0.20132484490943
