23
Coordinates from ORCA-job 12820 E -649.806621273099
  O          -2.97622076806050      0.09715702154666     -0.32715958602028
  O           1.07077625933847      2.27853226761021      0.44110271794538
  O          -1.56522769361669      2.31094017392665      0.14485925407640
  O           3.32432550606144      0.80899532668155      0.49494218485409
  C           1.16975554571761     -0.11301346358131      0.11626499502468
  C           0.45749849005301      1.10215765585172      0.20592771897712
  C          -0.92736792073978      1.10189009332018      0.04782865555977
  C          -1.62921377515684     -0.07243708055974     -0.19735024587052
  C           0.43257341411415     -1.27730781916157     -0.13167857693687
  C          -0.94310353229598     -1.28000453233356     -0.28887557719258
  C           2.64792114939271     -0.17470208952343      0.27655557691080
  C           3.32116725773081     -1.53452719713710      0.15876246669182
  C          -3.77680528405543     -1.04969460544773     -0.58046019613338
  H           0.39067841283319      2.96764055574344      0.46041895132210
  H          -2.51166333943344      2.16448572575730      0.01708206724316
  H           0.95205167115491     -2.22026981632489     -0.20503921181629
  H          -1.46521101008666     -2.20524306039196     -0.47845214793859
  H           2.94782818350280     -2.22982165480247      0.91363310804088
  H           3.14390678856150     -1.98280237374677     -0.82114969489812
  H           4.38940108810479     -1.39092912096493      0.30006911467910
  H          -4.80137555020447     -0.69291452976220     -0.64765996965164
  H          -3.49188210807260     -1.52507229204034     -1.52224713770342
  H          -3.69343278484299     -1.77248018465970      0.23488753283638
