39
Coordinates from ORCA-job 128839 E -1257.169340244891
  O           3.15298834592894      0.87082992020582     -1.36951068882273
  O           5.13852789668597      0.71597030691998      0.49165560594716
  O           1.99970862911523      1.60543040785523      2.04740196002035
  O          -0.01775921729330      1.46125849078113      0.17820024212825
  O           3.14479539830595     -2.34800281216790      0.59697581108342
  O           4.02447522276884     -2.42447619065388     -1.94832117321802
  O          -1.45197739206264      2.84529814020117     -0.85814599443566
  O          -2.56738639269424     -2.63858469995311      1.26871965362575
  O          -5.82796757856146      0.31106336111490     -0.59753075917188
  O          -5.18366476711062     -2.14447747043540      0.51369282012118
  C           2.77784715922086      0.57178575071823     -0.03335069156074
  C           3.95083577984093     -0.05753336131677      0.71705338971887
  C           2.26164488602811      1.84162382062225      0.66712903594490
  C           4.22819220399276     -1.50707256124219      0.27198810148752
  C           1.04261674531621      2.41546234581905     -0.02785484547092
  C           4.54105827290971     -1.63270123494317     -1.21095311276333
  C          -1.23597525155311      1.79711798046244     -0.30410197852840
  C          -2.24998738757544      0.73450217928865     -0.06684499055581
  C          -3.56331230716502      1.01380449734794     -0.44020147191311
  C          -1.90368930474972     -0.48734362910740      0.51016345745913
  C          -2.88795938708396     -1.44684817222608      0.70165594466245
  C          -4.54234519814131      0.05102627889849     -0.24588601372886
  C          -4.19495588619740     -1.18670097934518      0.29434595401450
  H           4.02140472374725      1.29584450395503     -1.32613260579073
  H           5.27646857221740      1.30913508072648      1.23624871430001
  H           1.12116593055073      1.20938172160902      2.11138988553496
  H           3.12580273969935     -2.47739089099319      1.55109139359755
  H          -3.38888752351856     -3.12119985549746      1.43715954880285
  H          -6.38395306836410     -0.40309333950485     -0.25570326329732
  H          -5.27179824164537     -2.70512165221317     -0.26935163256784
  H           1.97152300541400     -0.16100526674785     -0.09125743467238
  H           3.71130359611061     -0.08148106547701      1.78206239137228
  H           3.04953371750788      2.60064796467107      0.63087195068397
  H           5.15399298524341     -1.81602889352179      0.78182281370325
  H           1.21940087811240      2.54389380142180     -1.09432243759586
  H           0.75383796381233      3.37071136502284      0.41008106088011
  H           5.34678278526855     -0.95442751854783     -1.55089953548241
  H          -3.81550697703749      1.97066724296337     -0.87268738762484
  H          -0.88845655704367     -0.70689056671067      0.80089028211236
