40
Coordinates from ORCA-job 12900741 E -661.088718761789
  O          -3.11276403276569      1.32600612747318      0.23599888159477
  C          -1.79656882242176      1.21839939775514     -0.34307137083693
  C          -2.23312603575282      0.29059330570686      0.70695494858983
  C          -2.63765801898895     -1.14651641867061      0.50531641277310
  C          -0.79770019729417      2.31532864586430      0.03492098284657
  C          -1.77255410086909      0.83508106415147     -1.79917120432110
  C          -1.50731888381978     -2.13305715465842      0.86680973533352
  C           0.49830716999108      1.69107422107379      0.47154053693744
  C           2.59383467572987      0.34026071684168      0.04588160893280
  C          -0.27272153435967     -1.99695631666109      0.00601266184605
  C           1.44788060036230      1.24616705204384     -0.34188556997309
  C           2.12439383128725     -1.13686685294526     -0.18383277479205
  C           0.84362357189708     -1.47259510995136      0.51518558289884
  C           3.79588852900099      0.61014606130851     -0.86820582750872
  C           3.03259819797979      0.53152446291063      1.50236195965107
  C          -0.41958017217924     -2.48498793662762     -1.40748779512531
  H          -1.84480060171156      0.48948266632498      1.70662249020696
  H          -3.49901335751134     -1.35245781074820      1.14802637956839
  H          -2.97704781508592     -1.30517552604920     -0.51784762877101
  H          -0.64838985900789      2.97871317316709     -0.82037333231341
  H          -1.23240075325493      2.90920559345503      0.84006352693882
  H          -2.49642639765548      0.05644086632006     -2.02592441408680
  H          -2.01568362503015      1.70893159463570     -2.40815263296511
  H          -0.77964231403988      0.48733295999668     -2.08586515880115
  H          -1.23410965347522     -1.98686560303355      1.91502122769874
  H          -1.90834942586124     -3.14893120844031      0.78521182387135
  H           0.57739060858111      1.48421556855042      1.53289402868995
  H           1.35115661453659      1.43280428334467     -1.41002994577995
  H           2.03415508730924     -1.30376806951386     -1.25785493712994
  H           2.93208256477684     -1.79215122510872      0.16430952489937
  H           0.81462766446514     -1.20641633874615      1.56755708609774
  H           4.60941111068068     -0.08795724217511     -0.65806047654849
  H           3.52052775556157      0.49977939878127     -1.91970228371604
  H           4.17368264329076      1.62443513325902     -0.72366627561996
  H           2.24107636723856      0.30201144769668      2.21480662355326
  H           3.87620836146734     -0.12479308140197      1.72657003856190
  H           3.34620560871789      1.56223863392002      1.67572015495945
  H          -0.53644710342857     -3.57378557996700     -1.41548187273766
  H          -1.31182441032016     -2.07349987013608     -1.88264739795189
  H           0.43570515195943     -2.24038502974652     -2.03370631747130
