27
Coordinates from ORCA-job 12936734 E -1272.816722615789
  Cl          1.82907881616791      1.15073693935608      1.48600617688033
  Cl          2.09075243548618      1.91099325437248     -1.33496453406220
  C           1.78459904593878     -0.77544515138696     -0.60086157049421
  C           2.19045976019161      0.59558806816828     -0.15328984408472
  C           3.24220120908635     -0.44433182763918     -0.33367297007968
  C           1.01025770443934     -1.74396634164510      0.26060405819154
  C          -0.49134623709759     -1.74588192762264     -0.03959579463632
  C          -1.19051298582079     -0.41273753411903      0.21761164794414
  C          -2.68591906939608     -0.45535436413765     -0.08379496581892
  C          -3.39172589362625      0.87547638862894      0.16685756797108
  C          -4.88608407037722      0.82829575711027     -0.13995624990452
  H           1.51561562820082     -0.80729819663827     -1.65123106192775
  H           3.68655438409344     -0.83949184956596      0.57050006308058
  H           3.91629446884462     -0.33706023360889     -1.17205144816953
  H           1.41299647263304     -2.74669838825951      0.08764803476225
  H           1.18187455547890     -1.51655885128360      1.31510399031721
  H          -0.64485950549751     -2.03774422325170     -1.08492339265947
  H          -0.96656877555997     -2.52475134218238      0.56493825125489
  H          -1.03624042517090     -0.11762682298882      1.26007078774589
  H          -0.72615726412862      0.37193496134203     -0.38741045453059
  H          -2.83779286416229     -0.75285445494763     -1.12809161859334
  H          -3.15867024006472     -1.23534949515628      0.52461657023357
  H          -3.24024439591609      1.17102005953553      1.21032347625176
  H          -2.91636481962757      1.65314657140087     -0.43991066360310
  H          -5.39083429917492      0.08060563817537      0.47731396046479
  H          -5.36407079786744      1.79187250679816      0.04742277443339
  H          -5.06425483707305      0.56624085954561     -1.18608379096710
