68
Coordinates from ORCA-job 12967793 E -2061.367541452491
  O          -3.22645618579138      0.43636729073885      1.34024974906941
  O           1.96177097670155      0.19358962579733     -0.58056281409979
  O          -0.76072069382200     -1.22387654729746     -0.77866339861745
  O           5.30484722695713      0.19101911718731     -2.11513574229312
  O          -1.69706286640104      3.13001060430633     -0.79284812070440
  O           2.19658154649353      3.95207807320931     -3.48735524841893
  O           0.84181584611903      2.82018379224454      1.96045570846059
  O          -3.13374347483869      3.97168587930665      4.41782003937510
  O          -6.52597750294778     -1.61689587017044     -1.76012465525642
  O          -6.09192493684162     -4.26353899028726     -1.63889778685097
  O           5.32814006566282     -4.68414489202674     -0.64168773689940
  O           5.33810647271141     -4.43243496813839      2.03069135031637
  C          -0.50025021066756      0.86225592423175      0.45408748771932
  C          -1.46762830057771     -0.13180435082220     -0.20688735421661
  C           0.17301198228316      1.70277932478406     -0.61600105043421
  C          -2.47768174080388     -0.66638536427332      0.80990089575157
  C          -1.16613144176120      1.65422193121629      1.55692075417029
  C           1.43627529343092      1.35050306832035     -1.10186732600608
  C           2.13961984738104      2.09960542028064     -2.04230141190617
  C           4.13796784213841      0.72166777313580     -1.51260293968872
  C           3.10682786853272     -0.37923674181937     -1.22372000832115
  C           3.53434486475941      1.72955205505086     -2.46904290088998
  C          -2.49606201665690      1.43086541479466      1.91320746698125
  C          -0.42952625239450      2.81699168506214     -1.19185358369384
  C          -3.44635906817447     -1.64253383299173      0.20732866432004
  C          -0.48438806283942      2.64906600111944      2.25561632674286
  C           1.50308157293604      3.22638691827515     -2.55802422435228
  C           0.22524864818512      3.58200781833820     -2.15417435592074
  C           3.64508197863438     -1.45660512541710     -0.32487313069298
  C          -3.15568575735303      2.20839917457040      2.85950265834174
  C          -1.11350771553916      3.44094038360591      3.20988931315428
  C          -4.56472110447330     -1.18406591108685     -0.48641250296294
  C          -2.45971562006781      3.22241938936552      3.49346702126871
  C          -3.20284585155776     -3.00738722274634      0.28698072123479
  C           4.21470557905664     -2.59971817620999     -0.88466274409631
  C           3.64075774234656     -1.30061876894333      1.05813041121260
  C          -5.43108127711672     -2.07819885882279     -1.09102226667400
  C          -4.06600088452602     -3.91072844494137     -0.32358334068284
  C          -5.17595728825088     -3.44988036421372     -1.00934755364009
  C           4.77919131043467     -3.57551902388222     -0.07777413578023
  C           4.19687993372383     -2.28110594163509      1.87169021517865
  C           4.76629977097229     -3.41179663807691      1.31034903107445
  H           0.18362342763195     -1.02458710060026     -0.75262200614636
  H           5.68945991060350     -0.46190231570274     -1.51717278780721
  H          -2.00077932359819      3.91495622062343     -1.26066259678038
  H           1.66725791608640      4.70689277272519     -3.76627857661100
  H           1.18676562430326      3.56577388619345      2.46283846967295
  H          -2.53667348272650      4.62448143247658      4.79887578731764
  H          -7.00519094250596     -2.37853794873483     -2.11222293208238
  H          -5.82885372239927     -5.18492918949902     -1.54729920812389
  H           5.64960429539430     -5.25882589093075      0.06603046706309
  H           5.25145557617400     -4.26319440818809      2.97461910942387
  H           0.28256017331028      0.26133823035763      0.92227334249840
  H          -2.03732059696597      0.37932743234594     -0.98957258356988
  H          -1.92861251004741     -1.14660140351406      1.62846553574417
  H           4.37708696089727      1.20558991698842     -0.55622529637358
  H           2.79663267185072     -0.81248880612156     -2.18147927946232
  H           3.53818681423679      1.29459130226289     -3.47358579383958
  H           4.16243820172746      2.61982833649022     -2.51860583642604
  H          -0.26650317549405      4.44688401934075     -2.58794207491668
  H          -4.18809750255734      2.00635071874317      3.10360787326309
  H          -0.55678224101967      4.21237647398345      3.73254673614498
  H          -4.77887116941003     -0.12640382196046     -0.55009663186928
  H          -2.32907977901967     -3.36992110896857      0.81077313657570
  H           4.21789194824800     -2.75135184120618     -1.95643642400321
  H           3.18833447924212     -0.42408933164705      1.49913166923539
  H          -3.87525760642181     -4.97674556454965     -0.26342223088043
  H           4.18499593640198     -2.16595464204676      2.95000765068063
