16
Coordinates from ORCA-job 12988 E -271.707778232150
  O           1.90584253772438     -0.20797830953970     -0.85451822519155
  C           0.32099024693499     -0.10281107507112      1.03225884917972
  C          -0.87548486561816     -0.07892146229216      0.11601827069229
  C           1.61011650886351      0.41217561348320      0.39027443165224
  C          -1.22842430857788      1.24690135177764     -0.49351751107496
  C          -1.57225884057389     -1.18392354482069     -0.13704788888385
  H           1.64922444910884     -1.13574258754093     -0.80857740876426
  H           0.12362018649792      0.51721528077807      1.91551863676406
  H           0.48014178600819     -1.12260771586020      1.39597795685353
  H           2.43888820993361      0.27565692699926      1.09604708771997
  H           1.53461466747488      1.48030991165538      0.17916508744292
  H          -1.33998233969858      2.01563739409552      0.27750445377462
  H          -0.43811265588952      1.58278866767388     -1.16974182030938
  H          -2.15771256571601      1.18952361911911     -1.05944516383159
  H          -2.43829117239573     -1.17294695187537     -0.78765385493502
  H          -1.30446284407654     -2.13649211858188      0.30489909891126
