28
Coordinates from ORCA-job 12997 E -391.756094511814
  C           0.58017008582817      0.30506183137887      0.00843559878281
  C           1.88884663093221     -0.48081035275466     -0.01551875883763
  C          -0.66128400165766     -0.58313397694270     -0.01293767994533
  C           3.13119960066258      0.40591882982130      0.00638341043716
  C          -1.96601358256177      0.20710311835793      0.01103416040133
  C           4.44118885533117     -0.37862127881715     -0.01843660159736
  C          -3.20358270371188     -0.70334894482892     -0.01092294001899
  C           5.67682740538676      0.51737775250462      0.00401862433030
  C          -4.45917967779713      0.03508571853666      0.01176938702463
  C          -5.48053344601696      0.66567841728094      0.03218155822781
  H           0.55516678895494      0.93968999158785      0.90137756135435
  H           0.55154222667780      0.98696621001756     -0.84882767216530
  H           1.91655579609773     -1.16325842550133      0.84165945606734
  H           1.91320684396059     -1.11548856215771     -0.90873176886082
  H          -0.63685670268584     -1.21760304666851     -0.90634309409930
  H          -0.63324215729571     -1.26493658914183      0.84476409850075
  H           3.10360006922341      1.08915773085027     -0.85036389404163
  H           3.10752348642478      1.04054669992073      0.89983313504549
  H          -2.00453303629347      0.83679492611082      0.90410151542411
  H          -2.00813677860533      0.88405937552632     -0.84657752060339
  H           4.46757419844974     -1.06097590235474      0.83781201182099
  H           4.46376468421977     -1.01197307191013     -0.91163315304802
  H          -3.17543038803513     -1.33604149744358     -0.90410896801997
  H          -3.17181083579990     -1.38331971639294      0.84668999722607
  H           5.69536499832562      1.13834921749087      0.90327692076502
  H           6.59754577413907     -0.06909618932432     -0.01432758989223
  H           5.69158175757477      1.18771999386569     -0.85913094445507
  H          -6.38511089172833      1.22203074098811      0.04993015017690
