33
Coordinates from ORCA-job 130117 E -731.575874640707
  O          -2.58809612735571      1.27439671732799      0.02157244209582
  O          -4.54493855826577      0.09628674945323      0.02375892398267
  C           2.59989221919662     -1.54174708387908     -0.23990300568497
  C           3.72164336524417     -0.67325833698402      0.34156532552238
  C           1.37213839808714     -0.64045360079827     -0.13213612925949
  C           3.32596793630188      0.75334211684863     -0.04310897787315
  C           1.80878884999507      0.72681388976353     -0.05843309267659
  C           1.06228550179193      1.88039647448338     -0.02225548733780
  C           2.48781428361394     -2.91942392736112      0.39902904819881
  C           0.11200746749385     -1.16015595448220     -0.13522308561435
  C          -1.12941352724960     -0.47453226432963     -0.07141390560642
  C          -1.27629156878581      0.96664839269458     -0.01651333494153
  C          -0.35917105997002      1.96803293203480     -0.00314493114120
  C           1.79285887029456      3.20337113108673      0.01086089303164
  C          -2.38981590945928     -1.02004962606425     -0.06290619314409
  C          -3.34689051238074      0.05557220693035     -0.00380143636296
  C          -2.78773205815879     -2.45522651349260     -0.10873903295284
  H           2.79807935052691     -1.67346575367988     -1.31296874316000
  H           3.72428872496322     -0.77442694511147      1.43103698531492
  H           4.70837925106645     -0.96178301474093     -0.02116853955659
  H           3.72665944988310      1.50132359396785      0.64115126986123
  H           3.70713208296549      1.00622622180424     -1.04060719692865
  H           2.21558526464366     -2.83623079729695      1.45359339188793
  H           1.74351436093162     -3.54552076129202     -0.09489375168920
  H           3.44438710343405     -3.44183943078408      0.33552374866088
  H           0.02980771055619     -2.23892387121127     -0.19354621443354
  H          -0.78327703309528      2.96441708016420      0.03445238770232
  H           2.32934122980289      3.33289318681379      0.95507586384569
  H           2.53461183562454      3.26904627372712     -0.78747510448068
  H           1.10397856169241      4.03892143372015     -0.09730003810944
  H          -2.37847378771401     -3.01665997311037      0.73622057116956
  H          -3.87348362520098     -2.53736724648270     -0.07468343677120
  H          -2.44042505047376     -2.94385029971972     -1.02400821354918
