29
Coordinates from ORCA-job 13010829 E -691.284128384711
  O           4.62534548755668      0.50950869799719      0.12876638052193
  O          -3.82896603059157      0.15927671144025      0.06936288830567
  O          -1.90849666916541      1.32135794367264      0.16525897812568
  C           0.69263235216740     -0.87451399465163      0.01353672190817
  C           1.80975417242249     -1.73150710670587     -0.04938613855202
  C           0.94427912250188      0.49995611991142      0.11975359451813
  C           3.32728807225633      0.12186764867281      0.09619699910171
  C           3.10040288262323     -1.25311356648920     -0.00979070004899
  C           2.23913312143182      0.99346479821954      0.16074692812381
  C          -0.61456750723953     -1.50746405633064     -0.03817656856961
  C          -1.89929733448172     -1.09262133348346     -0.01265875632802
  C          -4.55227350195400      1.40076560819412      0.15708004942937
  C          -2.47565867677330      0.25233638897280      0.08346029353939
  C          -6.02758079343005      1.07336260456306      0.12707967874451
  C           4.91650651827601      1.89490024941599      0.23623784304060
  H           1.64856395547475     -2.79977072551244     -0.13154802784706
  H           0.11176129236992      1.18285267218756      0.17009170230098
  H           3.95072872612489     -1.91982966466184     -0.05894070217713
  H           2.38820508701277      2.05985789548152      0.24304779014950
  H          -0.52720638399485     -2.58807378651287     -0.11780604687049
  H          -2.65372949705091     -1.86605764621041     -0.07286377049424
  H          -4.26562044430119      1.91157551525167      1.07822971880864
  H          -4.25846006600011      2.03977992352310     -0.67778245092040
  H          -6.30183065613673      0.43273350572985      0.96645006833426
  H          -6.61128060625343      1.99361065181987      0.19182394164388
  H          -6.29456521256911      0.56151954667072     -0.79860556409176
  H           4.51418973377618      2.31414034285479      1.16256606985818
  H           6.00094161828559      1.97203115584745      0.24470427814562
  H           4.51834123766198      2.45136290013200     -0.61671219870034
