52
Coordinates from ORCA-job 13093776 E -1639.621679026767
  O          -2.80372862712981     -1.51855085180425     -0.45320830204709
  O          -3.03835330759405      0.81869890245932     -0.39562957868754
  O          -6.86532602462362     -0.93990415684129     -0.71314817379559
  O          -5.76026661148169     -2.08078959891009      1.67957107057429
  O          -5.06667326732785      0.72895286308051     -2.24385768088554
  O          -1.52906106462702     -2.80513701656542      1.77375604731876
  O           1.68623765090214      0.33307905840289     -0.08716043884082
  O          -0.45684241574191      4.45565664177373      1.03737317617794
  O           2.11078942343544      4.17212602777001      1.18454880280042
  O           4.42533869260481     -3.38190032542525     -1.69356335119018
  O           6.90697822384509     -3.01825490710117     -0.73890508127375
  C          -5.53334319101988     -0.70410301329668     -0.30328816266138
  C          -4.99331443138060     -1.89520086656826      0.48959992882825
  C          -4.68084959083494     -0.43028631158865     -1.54111548076590
  C          -3.49886389762974     -1.74563758500610      0.77419461854772
  C          -3.20039329756885     -0.37742027526709     -1.15474185619534
  C          -2.88930812474756     -2.98054176345620      1.41274060084599
  C          -1.78353842694723      1.29134908760242     -0.13119921115129
  C          -0.63755930905845      0.51258106065831     -0.26568534714005
  C          -1.73424969030744      2.61348828425868      0.30976913957141
  C           0.57358844008949      1.11287813756527      0.04352146717542
  C           0.67812235466206      2.43192103080645      0.48426789741250
  C          -0.51302979887609      3.18910324938008      0.61969821051344
  C           1.97771984223912      2.99694035018642      0.79138731386522
  C           2.91738264472392      0.82771006427934      0.18748546948702
  C           3.09261821543328      2.10598758036803      0.60081634649278
  C           3.97687644474956     -0.16145588541803     -0.02774161748578
  C           3.70987558628056     -1.32764039168433     -0.75419801029150
  C           5.26149039580296      0.04321831216207      0.48158747653959
  C           4.70406713130305     -2.26145579697825     -0.97876575627989
  C           6.25916842954727     -0.89280720844893      0.26011199577723
  C           5.98852373464908     -2.04027905158024     -0.46907390345524
  H          -7.34026444371342     -1.29599500224648      0.04869847803821
  H          -5.65167374972501     -1.30177960868740      2.24040725265865
  H          -4.84365387060251      1.49337685369093     -1.69774271003915
  H          -1.46887976838168     -2.12908814397812      2.45777365132196
  H           0.50801778057503      4.65827798570375      1.19123700755892
  H           5.22666075901059     -3.91929054692650     -1.75129864711561
  H           7.76263236988430     -2.79241307491433     -0.35844710060722
  H          -5.48679091513642      0.18440912781960      0.34772517501806
  H          -5.15532545469180     -2.80314028332446     -0.09672654127621
  H          -4.81104033416233     -1.26257276568228     -2.23528182574166
  H          -3.34531275276165     -0.88359936132371      1.44043512870902
  H          -2.56708021846506     -0.32978884756233     -2.04193990704534
  H          -2.90405946288957     -3.79671849154755      0.68892698397463
  H          -3.50421959949632     -3.27122304343794      2.27027049793851
  H          -0.67140986251239     -0.52817957324610     -0.54220338026280
  H          -2.64308374927195      3.19093943340775      0.39882330689304
  H           4.08229342107169      2.49283555757959      0.78440903730002
  H           2.72555369289755     -1.51647408215105     -1.15519701831449
  H           5.48601362634848      0.92008998343013      1.07026652055204
  H           7.25294039865136     -0.73415876141677      0.66306648065834
