20
Coordinates from ORCA-job 13201 E -386.244638226445
  O           0.72171138331389      1.16639783797108     -0.14828225553771
  O           0.75343212975102     -1.09978769452179     -0.19706585164474
  C          -1.39466902292290     -0.01109513871161     -0.36898284710880
  C          -0.00674801342447      0.00454386149273      0.24374909389914
  C           2.06935557624103      0.78146299231831     -0.41983526170004
  C           2.10752897015722     -0.70074793914429     -0.04139011222186
  C          -2.13354904309578     -1.29321625556256      0.01459877451477
  C          -2.17422204070884      1.23525483431580      0.04987039236161
  H          -1.24592423896073      0.00781231365085     -1.45325531403589
  H          -0.06896765704996     -0.01086812352636      1.34625873209622
  H           2.27905116548941      0.93754556052346     -1.48128216068912
  H           2.75702463585223      1.38710322044468      0.17452816982249
  H           2.43100698540955     -0.84024519895736      0.99763565594289
  H           2.72663195829337     -1.30981803751318     -0.69742428379888
  H          -2.26732891597529     -1.35520910942811      1.09842367219379
  H          -3.12483121502748     -1.31100015834207     -0.44199329629531
  H          -1.58823452260216     -2.17864497396656     -0.31067057311153
  H          -2.31744241642843      1.25828796812018      1.13403820712341
  H          -1.65188137669828      2.14547360737047     -0.24265715106762
  H          -3.16213334161340      1.23845443346634     -0.41417859074282
