19
Coordinates from ORCA-job 13205 E -382.219168509195
  N          -2.42676604791100     -0.76045013782388     -0.07245629624053
  N           2.42700017772388     -0.75989529839827     -0.07240192649487
  C           0.00011387216781     -0.78921263333615     -0.06332144258471
  C          -1.20748148351424     -0.07487381699170     -0.03665036684499
  C           1.20754730166473     -0.07460460693537     -0.03663986811714
  C           0.00024530941143     -2.29170187821871     -0.14119470577365
  C          -1.20359159745533      1.32302072348978     -0.03771784089949
  C           1.20333391565324      1.32329266783827     -0.03771234031980
  C          -0.00020549553660      2.00841852510324     -0.04851841902620
  H          -3.22359840240741     -0.19314024098823      0.17073504532793
  H          -2.44351811697743     -1.64526027413034      0.40896531822037
  H           3.22368601364847     -0.19238125092622      0.17079062851969
  H           2.44394982349426     -1.64466078782958      0.40909187600794
  H           0.00001943675156     -2.76860352261590      0.84694196100876
  H          -0.87514699532871     -2.65574895450783     -0.68073350157693
  H           0.87592308199220     -2.65565282221932     -0.68031815028122
  H          -2.14366282834861      1.86120533011389     -0.02516192157643
  H           2.14328094962051      1.86169512542540     -0.02515037645304
  H          -0.00032791464878      3.09124885295092     -0.04854867289569
