28
Coordinates from ORCA-job 13220 E -483.096305357030
  O          -0.00000377011702      2.66673279910707      0.33413017206839
  N          -0.00042885935825     -1.19555317381397     -0.31569221980043
  C          -1.28492917068048     -0.55560363207116     -0.00347784619356
  C           1.28440080451812     -0.55568349021757     -0.00469484487414
  C          -1.26474928908072      0.86409131441335     -0.61171590452001
  C           1.26369882674045      0.86399940909753     -0.61289299739106
  C          -0.00033298719546      1.59942937499141     -0.23758280759313
  C          -2.36576002020609     -1.38988651150668     -0.69716727999202
  C          -1.62825994984586     -0.46757252444296      1.49780046442108
  C           2.36453214721351     -1.39005123428534     -0.69937289429821
  C           1.62916084126850     -0.46767064097410      1.49626478624997
  H          -0.00032162214125     -2.15754209588638      0.00105247630354
  H          -1.29041111230782      0.77054026622301     -1.70136132229651
  H          -2.12979220943325      1.43939897876434     -0.28483679163077
  H           2.12908639425811      1.43930443609062     -0.28690754576703
  H           1.28836826619041      0.77049660996530     -1.70257204206909
  H          -2.41575393918486     -2.39144670959595     -0.26131846894250
  H          -3.34743370174917     -0.92762998347277     -0.58083790395480
  H          -2.14288723574694     -1.48976064377584     -1.75944356616960
  H          -1.01122977051951      0.25589052425638      2.02599168334409
  H          -2.66893728363079     -0.16417495961402      1.62891941832267
  H          -1.49882942548186     -1.44145631645922      1.97435102260021
  H           2.41490091841713     -2.39152590990045     -0.26329102282153
  H           2.14051376887146     -1.49037396979902     -1.76135190262827
  H           3.34637593462540     -0.92797254832008     -0.58386890272628
  H           1.01283087925620      0.25599429608634      2.02500416280071
  H           1.49994618605260     -1.44149885633591      1.97298348066394
  H           2.67004037926745     -0.16454180852392      1.62638059689432
