27
Coordinates from ORCA-job 13256 E -578.737868783468
  C           0.68012359841209     -0.19218355790685      0.02494869185883
  C          -0.77950476305539     -0.27370115378174      0.04342092735299
  C           1.26383269503946      1.11136626965594      0.04749695124106
  C          -1.54600363599427      0.92375953003024     -0.07332859963012
  C           1.57494483217106     -1.30475015110649     -0.03889081642684
  C           0.44525211193052      2.28005313160578     -0.02613057404788
  C          -0.89716200567341      2.19261346889706     -0.12089230375123
  C           2.65784973605951      1.28261868902267      0.10962124767363
  C          -1.51416977847471     -1.46780376150548      0.21573280746054
  C           2.94140320844588     -1.07901121233296      0.01742013902985
  C          -2.95250900728921      0.87141419450572     -0.09682918695348
  C           3.49458470732514      0.19787341554212      0.11437755128819
  C           1.16350688285432     -2.74470210254023     -0.22470010109613
  C          -2.89227911151603     -1.49340259858217      0.20860788820949
  C          -3.62726166076919     -0.31789538212275      0.03066179737810
  H           0.93820881067116      3.24449973069707     -0.02577195535422
  H          -1.50901798678211      3.08260340683656     -0.20295765168952
  H           3.05434698032583      2.28994403777420      0.14096606986160
  H          -1.00697672341532     -2.39622230953199      0.38881309239047
  H           3.60457865652693     -1.93374251365440     -0.03337371718594
  H          -3.49735014203719      1.80192517974133     -0.20200917177725
  H           4.56855052996243      0.32337666253056      0.16252351092864
  H           0.74709688925818     -3.18195208420634      0.68592933918471
  H           0.42529950531289     -2.86190363854295     -1.01843078958418
  H           2.03756776153457     -3.33721418260656     -0.49258926442744
  H          -3.40463567838361     -2.43661455472605      0.34982591363913
  H          -4.70917541243953     -0.34284451369229      0.01485620442700
