56
Coordinates from ORCA-job 132567 E -1642.006987421024
  O          -0.65117433905592      0.68513691931403     -0.65545522274119
  O          -1.96425390853551     -0.00428125917978      1.08077310008337
  O          -0.55535254390826      4.56818532805681      0.65014548721230
  O           0.16534472125526      3.95066022555124     -2.03460423359352
  O          -2.41377125547674      2.73069284533777      1.80735438982050
  O           0.38360432580102     -0.24007022816507     -2.98506221602141
  O           0.46686785000906     -1.75943725500452      0.62723363660907
  O          -4.14945417015031     -4.69297952335325     -0.87858802989782
  O           1.61422437273629     -1.21193715483913      2.48467620409172
  O           2.06031770998632      1.52957633953244      1.60969711979562
  O           2.69851194348941     -2.40896356656876     -0.96293320679073
  C          -1.04260275852215      3.40286208486674     -0.00326596211854
  C           0.01020243728349      2.97418942957896     -1.01526265653713
  C          -1.34683888192698      2.28357499368555      0.97916667479819
  C          -0.39341037382993      1.65534368377006     -1.67286073727550
  C          -1.72133006398313      1.04346041424363      0.18248786696792
  C           0.70374124407255      1.06914489386527     -2.54677207938840
  C          -2.52884780297360     -1.15388286091347      0.54754585705909
  C          -1.84780509192091     -2.36248649670977      0.71283596039283
  C          -3.76507827329073     -1.12609233297858     -0.07803400225371
  C          -0.53893365438262     -2.40496628473654      1.43870849138764
  C          -2.42151895647889     -3.53017760297430      0.22544302060792
  C          -4.32783651645655     -2.29816294546240     -0.56940742264354
  C          -3.65381101460895     -3.50477431052008     -0.42037270656623
  C           1.47836293376791     -1.17960546874658      1.28565917003701
  C           2.42165249699084     -0.47380606500958      0.36894941166499
  C           2.74765488098150      0.86065058616975      0.63184270999830
  C           3.02932634598261     -1.11304190832554     -0.71787851391957
  C           3.67749479310073      1.53916334910220     -0.14701951626504
  C           3.96706902667613     -0.43730833859435     -1.49543656855492
  C           4.28826420425532      0.87971077197245     -1.20462071650289
  C           2.77491638723589      1.75587256913048      2.82804239921156
  H          -1.19611408437386      4.80917882476209      1.33000458614174
  H           0.28887766800703      4.80130709184908     -1.59571942305239
  H          -2.58062511979489      2.04902155831382      2.46852353817904
  H           0.16290030400995     -0.75364152895025     -2.19622527393020
  H          -4.99510145709191     -4.54489539217652     -1.31625449282976
  H           3.14968756860020     -2.70896448973823     -1.76012608040234
  H          -1.96744722003943      3.64434541435553     -0.54617016578807
  H           0.95372173194057      2.82365798285901     -0.47914549775523
  H          -0.45263099424674      2.05292531737042      1.56668371748436
  H          -1.30303724718575      1.80549333137682     -2.27020365627332
  H          -2.61567979534762      1.24036619895877     -0.42621977544230
  H           1.64385032792830      1.07561911903263     -1.98947821908697
  H           0.82762904546080      1.69048863521169     -3.43242820012002
  H          -4.30012456467975     -0.19105794737921     -0.17544685335383
  H          -0.22610679307579     -3.43437536574005      1.61570657357632
  H          -0.59308052904130     -1.88867421353590      2.39490224986279
  H          -1.91021909555500     -4.47729904798808      0.33920593464304
  H          -5.29454949066087     -2.26902411016677     -1.05940186401802
  H           3.88636977586076      2.57896749167633      0.06315767743225
  H           4.43195277943904     -0.94415486981504     -2.33282231334229
  H           5.00638923832677      1.40209937555907     -1.82303007149401
  H           2.98124600777503      0.80454968132993      3.32071566608541
  H           3.70720754289344      2.29486693570067      2.63921267506856
  H           2.12474533272789      2.36469717503847      3.45270655974731
