27
Coordinates from ORCA-job 13257 E -578.746620542073
  C           0.41603845572148     -0.58409007131873     -0.01004966633412
  C           1.26698110897747      0.55439736332715     -0.00149942657679
  C          -1.02298784324105     -0.39912081062933      0.00191269390911
  C          -1.55388376271977      0.91634308471301      0.02232415732286
  C           2.67836374658067      0.38963465399082     -0.01311800204939
  C           0.67930189782859      1.85852835901865      0.01897351196125
  C          -0.66374295408177      2.03072664926245      0.03040839879866
  C           1.00588045854853     -1.86251890451269     -0.02992758288190
  C          -1.93347395495564     -1.47475423422546     -0.00583494452331
  C           3.20393267961559     -0.88451240347971     -0.03253905218304
  C          -2.94977158056658      1.10774672902448      0.03427685288244
  C           2.37133791657712     -2.01003182527403     -0.04092081047534
  C           3.59790220080881      1.58069953953382     -0.00452090541704
  C          -3.29360096719940     -1.26513147222943      0.00603550018564
  C          -3.81135797690916      0.03792137468912      0.02636129054326
  H           1.32522101590331      2.72467561258545      0.02548712127559
  H          -1.08780254632423      3.02761166467354      0.04596350584535
  H           0.38514061225041     -2.74598013092230     -0.03669779670783
  H          -1.56800184182839     -2.49093539343661     -0.02148214374718
  H           4.27917919305071     -1.01585220621877     -0.04144403662335
  H          -3.33353065987862      2.12086244923701      0.04988914745941
  H           2.80776168860963     -3.00064040372851     -0.05616789893962
  H           3.44903405562657      2.19973156757963      0.88379716866796
  H           4.63843438285992      1.25832591348748     -0.01572076997273
  H           3.43690197036798      2.22166072825913     -0.87499557962492
  H          -3.96690359288925     -2.11277998684880     -0.00040332047006
  H          -4.88196970273292      0.19679515344261      0.03567458767512
