64
Coordinates from ORCA-job 13337242 E -1237.670496846576
  O           0.43245654581754      1.36664545587993     -0.14654572489413
  O           6.37596627224686     -0.26537607205292     -0.93991129085307
  C          -3.22867555721777      1.00930478514237     -0.81787346945139
  C          -2.32187712912990      1.10343104122191      0.43147205080542
  C          -4.38112697060906      2.00572922919355     -0.68098969499262
  C          -2.44244291630477      1.13224534863102     -2.13970337862020
  C          -5.25658688234781      1.66792063907813      0.52218271168472
  C          -3.13732815470015      1.16988905450627      1.70071043534763
  C          -4.44758586748712      1.39869448827031      1.76374695165720
  C          -1.34851766553461     -0.05789506154943      0.48762926362916
  C          -3.25782351175032      0.60476749226660     -3.32265770140798
  C          -1.93501696771269      2.54803772470791     -2.42254906908096
  C           0.00712577934933      0.11011415285814      0.19341067013911
  C          -1.79930927632133     -1.33412718770064      0.79987013042778
  C          -5.19884078269461      1.40678075486858      3.06216471522331
  C           0.89046820261331     -0.97807451407345      0.21280987196718
  C          -0.95549763261865     -2.44045180091357      0.81421629446939
  C           0.38516044273983     -2.24279402820649      0.51335876638643
  C          -1.49517841613134     -3.81328557211955      1.15529090834134
  C           2.32581732034938     -0.79590476625017     -0.10467672669691
  C           3.11760107445526      0.11586951093981      0.60270809082470
  C           2.93859372942413     -1.54308743193206     -1.11067373969145
  C          -2.59017720696801     -4.24753836957925      0.22481475696060
  C           4.46793493834326      0.30618767866854      0.33297095930359
  C           4.28602941460285     -1.38045358342744     -1.39379192101419
  C           5.04797174879587     -0.45749332236418     -0.68485664283920
  C           5.28450514925616      1.32585159323122      1.08970679234206
  C          -3.83370371827129     -4.53004850756213      0.59161031746301
  C           5.34402415211160      2.63974712675549      0.35749586004688
  C           6.44852842599603      3.18853359904669     -0.12859803806919
  H           1.36224341154590      1.32039664833392     -0.40677560913592
  H           6.65386896816481     -0.84652541792282     -1.65646665116068
  H          -3.66592974833947      0.00352366526015     -0.80602935631679
  H          -1.73314218392182      2.02086327677464      0.36071053637258
  H          -3.97641208415950      3.01398324264931     -0.55529673937724
  H          -4.98822393941179      2.01980383613364     -1.58856512489857
  H          -1.56676631686561      0.48375342189232     -2.04159543080777
  H          -5.95817430896388      2.48550818979986      0.72020380991997
  H          -5.88160236206390      0.79222040870048      0.30277957904255
  H          -2.58750959269692      0.99871166170926      2.62150916179883
  H          -3.58361863812013     -0.42344823500299     -3.14936825911311
  H          -4.14772095073157      1.21273998441583     -3.50274102758231
  H          -2.66391399753491      0.61873812352726     -4.23927757482016
  H          -1.34311800920872      2.93912407161368     -1.59505581395573
  H          -1.29828156258472      2.55022439855844     -3.30995925534142
  H          -2.76111692406772      3.23747061490974     -2.61144013963264
  H          -2.84944979347743     -1.46652623133836      1.03235701877854
  H          -4.54926912226774      1.17244018278621      3.90601277748842
  H          -5.66042283898716      2.38292237730356      3.24324295861154
  H          -6.01384784848609      0.67534213752520      3.04438868888133
  H           1.07072137693456     -3.08189663464927      0.53322447157727
  H          -0.67246477377170     -4.53350498097898      1.11067125008713
  H          -1.87062690382047     -3.82572959505316      2.18295406703210
  H           2.67201863850073      0.67859064206035      1.41544901028429
  H           2.35213291049524     -2.25244438715380     -1.67982974122663
  H          -2.31760546329807     -4.30350390814805     -0.82602961597916
  H           4.74958218265110     -1.96811012711257     -2.17916633781762
  H           4.82590090273519      1.47831095767837      2.07090137272247
  H           6.29610472426482      0.95220431781841      1.25136048548605
  H          -4.58544127125868     -4.82874908895325     -0.12803296085900
  H          -4.14368523024069     -4.47312892183846      1.62948523954382
  H           4.38988243569896      3.14207728852929      0.21914566474420
  H           6.42744101451936      4.13501751145289     -0.65394704184247
  H           7.41269775846607      2.70491611118370     -0.02208056191210
