45
Coordinates from ORCA-job 133323 E -1092.173456631324
  O           0.56577317305036      2.73563365630951     -0.35680524361252
  O          -1.82153429134304      3.72077413324972     -0.11927763092251
  O           4.76243545958878      0.55701976813991      0.16788545527023
  O           4.84598192164224     -1.94831456126986     -0.70833177468450
  N          -2.28413767261384     -2.67852590259459      0.06746429298450
  C          -1.06334189027917     -1.88210118328818      0.18712665169323
  C          -1.32774567510347     -0.38771808399500      0.12102150503434
  C          -0.03951008380589     -2.22740833170017     -0.89420109421677
  C          -2.61016094885848      0.12458521972462      0.23978652764583
  C          -3.34169658195324     -2.15831184229549      0.92310010989471
  C          -0.21232401821108      0.46946941720844     -0.06497999135396
  C          -3.78595029594035     -0.79573928064181      0.42960179809159
  C           1.22453674864512     -1.45601874642671     -0.64225215771038
  C           1.13164039072767     -0.12638485488079     -0.20756361689030
  C          -2.82052297514846      1.50539330373584      0.16954343304526
  C          -0.44825470881356      1.84319839938248     -0.14174466385476
  C          -2.04904038803679     -4.08679412754419      0.34044747125997
  C          -1.74979980544504      2.35229700872978     -0.02132778259885
  C           2.47042084455519     -2.05246713308848     -0.80861687307554
  C           2.31557948513367      0.57185434922697      0.08091221672992
  C           3.54758136629700     -0.03224055491391     -0.08313099333899
  C           3.63366621319367     -1.35340043356605     -0.54115931824689
  C          -3.10035652579317      4.32856825652320     -0.06162096155914
  C           4.76881564325510      1.90521395371360      0.60651509140114
  H           0.15762843574189      3.61120226167782     -0.41623191748322
  H           5.52276120493429     -1.30226657944591     -0.46231472408434
  H          -0.58513258510923     -2.09096593655485      1.16704683576035
  H           0.18513680897000     -3.29225233217639     -0.90243997567279
  H          -0.47225926155465     -1.97483268890673     -1.86881473563276
  H          -4.17905185311381     -2.85769848810397      0.89760728499769
  H          -3.00897856815559     -2.08894939432819      1.97578911308774
  H          -4.49497847915776     -0.35645234242471      1.13682975520930
  H          -4.31531054547475     -0.91907089343243     -0.52090003781445
  H          -3.82519062368363      1.89323328269080      0.26484744833043
  H          -1.63366970468937     -4.25988255135538      1.34929097231728
  H          -2.99243871478727     -4.62819000599727      0.26441153814878
  H          -1.36298216398225     -4.51772898867826     -0.38589072250779
  H           2.54930963410873     -3.07925726881443     -1.14338390198604
  H           2.25715294893762      1.58760000615591      0.42937689290511
  H          -3.58429054796213      4.13647643408222      0.90014795831615
  H          -2.93499220542488      5.39717536591478     -0.17713516108381
  H          -3.74382564469245      3.96808053738661     -0.86910235095787
  H           5.81431448796992      2.18236919116681      0.72064966230660
  H           4.29238463253355      2.56011825356909     -0.12817943158377
  H           4.25608035984859      2.00952570783566      1.56698404644178
