35
Coordinates from ORCA-job 13343541 E -882.009116777196
  O           1.17086326893379      1.41376353445575     -0.15619125145132
  O          -2.34280031456553     -0.23077382154505      1.23886342170272
  O          -1.32431126862946     -2.46627184785261     -0.92141021780585
  O           2.21931346953186      3.33896623624191      0.19248733117106
  C          -1.28663575510629      0.31902914611413     -0.82874258192775
  C          -0.08242520317697     -0.52960125576856     -0.53283297771752
  C          -1.92741248615825      0.88888791571860      0.44217948978546
  C           1.13125449824222      0.05082201298150     -0.18665726186216
  C          -0.13524252221105     -1.93002368929448     -0.56453282112003
  C           2.27595665771240     -0.69990738200723      0.12507943922811
  C          -3.09362899492045      1.80431216158668      0.14498142250266
  C           0.99000852330254     -2.70743990524121     -0.25465808228795
  C           2.17667782013056     -2.09196202643507      0.08573503773318
  C           3.46800670379931      0.01206554366341      0.46717452846516
  C          -4.26693248686562      1.20852646392892     -0.57946751114352
  C           3.49143065005303      1.35930449294347      0.49525357885159
  C           2.30917968644686      2.13990387721088      0.18343910506769
  C          -3.05398762416182      3.07649874855916      0.53260515436225
  C          -1.48618335769188     -3.87432024825643     -0.88845625838195
  H          -2.67924773845388      0.11418417386877      2.07329738860448
  H          -0.99753461054729      1.16213097869102     -1.45750087027918
  H          -2.02278462604658     -0.27441158703980     -1.36545537777871
  H          -1.16852280000496      1.46162248269270      0.98239966779872
  H           0.93669721398811     -3.78457429542050     -0.28012745047210
  H           3.04670340990466     -2.69025911652954      0.32598915824409
  H           4.35925217808404     -0.55691061859688      0.70684047435083
  H          -4.57723695427451      0.27369989645803     -0.10877745790896
  H          -5.11198036783317      1.89636014365608     -0.59247265696039
  H          -4.00915519785437      0.97167563342702     -1.61554478482560
  H           4.37513844315864      1.92440214757726      0.75162188906547
  H          -3.87457613819438      3.75683124555997      0.33786595167897
  H          -2.18972805791659      3.48357373327841      1.04392410942293
  H          -2.52030869222204     -4.05972081887291     -1.16768391710887
  H          -0.82304105522604     -4.37045277787397     -1.60283925364897
  H          -1.30443227122687     -4.26890817787944      0.11466258464547
