81
Coordinates from ORCA-job 133534 E -1471.811457650684
  O           4.68424461330118     -2.87308517407025     -1.06561424783661
  O           6.64761374692333      3.01711177128187      0.33777589418951
  O           6.97921362483237      0.63898515454795      1.69935634026069
  O          -3.96481488611090     -0.07805349653732      2.55768414041168
  O          -6.51516631393072     -0.56438672571600      1.76705049049958
  C          -0.51544921355681      0.07098023624109     -0.08720969250577
  C           0.43017983187106     -1.08649130007268      0.31506702758730
  C           1.81314109725130     -1.00896939939432     -0.31763395855245
  C           2.48607276236265      0.31644575278663      0.09879448860590
  C           3.93118339325721      0.45068126299786     -0.46036371329997
  C          -1.79591176064518     -0.35565066721726      0.68799151980970
  C           0.16024161810189      1.37116608352750      0.36566417186982
  C           1.57764443789701      1.51564491968502     -0.20704153814699
  C          -0.40670247410579     -2.34822596820291      0.11625181748910
  C          -1.83594539268072     -1.90096181757424      0.50103683760615
  C           4.75314400882742     -0.76426294422968      0.07804957314323
  C           2.67567620841061     -2.22451013255916      0.06493290058041
  C           4.60145227804591      1.72908322403866      0.07997017891830
  C          -3.13858531220707      0.31234414309607      0.33599175465132
  C          -0.79206894007340      0.10411039089800     -1.59829207830334
  C           4.10864056973320     -2.05896067100105     -0.37974149115763
  C           6.24246050723316     -0.68892854574521     -0.24203114054592
  C           3.93500386727320      0.46939826927475     -1.99813122479811
  C           6.09934621391467      1.83281794097670     -0.22208295836808
  C           6.86943696432563      0.60340913095444      0.26551373597965
  C          -4.25792909101140     -0.31655232301994      1.18024730073473
  C          -3.11477952123980      1.83603891947000      0.48242710984726
  C          -5.66795440648354      0.19617694819745      0.88111245161838
  C          -6.12759075599717      0.07871254142213     -0.58135974833877
  C          -7.55554051449381      0.64469291540594     -0.78556144317354
  C          -6.00765117836125     -1.36091673417473     -1.09091346762556
  C          -7.94095235643806      0.68779393434133     -2.26795981817570
  C          -7.73290960532910      2.04503742543543     -0.18671757698691
  H           6.88895752865063      2.79778752307498      1.24876450863941
  H           6.14580538292034      0.34958162507387      2.08667204081023
  H          -4.73868548291521     -0.37927766699575      3.05035348180383
  H          -7.35145362471980     -0.10102209027133      1.87498597634612
  H           0.58103095414731     -0.97598763785109      1.39830903516205
  H           1.69772696181876     -1.02240324794474     -1.40466359427192
  H           2.59214993465378      0.27579655860092      1.19271180840968
  H          -1.60600084949676     -0.14702665868156      1.74400488802002
  H          -0.41876233972330      2.24834845673931      0.07840016408928
  H           0.20848978364452      1.37552525292536      1.45981411548643
  H           2.02204889766300      2.42485339579392      0.19958346181348
  H           1.51536021735174      1.66620648996975     -1.28686252356820
  H          -0.36376961303014     -2.67882746629435     -0.92432590659595
  H          -0.05525355122083     -3.18061343726611      0.72605243061951
  H          -2.17719959332384     -2.38860007300240      1.41340855651909
  H          -2.54618709008867     -2.17380687772851     -0.28246596369842
  H           4.61695841817371     -0.74894095549610      1.16900638293451
  H           2.67267505570393     -2.32593916916955      1.15739336782493
  H           2.27925357964594     -3.14551349076425     -0.35970136138900
  H           4.12016285902927      2.61799931448509     -0.32797768800881
  H           4.46114232318986      1.77639116317321      1.16640453323523
  H          -3.36532713727807      0.06811705682878     -0.70587568664729
  H          -1.44001818649287      0.94580213804615     -1.84769225212875
  H           0.11840442616613      0.21632379880364     -2.18483827402561
  H          -1.28881542585294     -0.80362685247307     -1.94162737780666
  H           6.76189245009436     -1.54176640353325      0.19714615938358
  H           6.39310659546466     -0.76760722885514     -1.31951361417150
  H           3.38607539870175      1.33424800434295     -2.37067521654004
  H           4.94465164748904      0.53125717391704     -2.39939682027568
  H           3.48179768768870     -0.42590526325040     -2.42258126869572
  H           6.24720647994094      1.91790897483976     -1.30103586522033
  H           7.90172841079375      0.68018492549453     -0.07915384873374
  H          -4.26636699226658     -1.39594531128202      1.00605115585250
  H          -2.83199790828261      2.12420978062570      1.49502953889691
  H          -2.41032865729705      2.28800887039655     -0.21190028804525
  H          -4.09073432303396      2.27441406372441      0.27187184364913
  H          -5.69977207709821      1.24231261728923      1.18870356151342
  H          -5.45533530752597      0.71563842340220     -1.16847482331934
  H          -8.25557121739338     -0.03429467027473     -0.28355794384300
  H          -6.63048999073925     -2.02953808730374     -0.49442040970008
  H          -6.31466972087563     -1.44476363683358     -2.13179329579962
  H          -4.98166583916742     -1.72300673405085     -1.03137804774216
  H          -8.93714055591681      1.11677835895556     -2.39162207922253
  H          -7.23954597551904      1.31165651973655     -2.82981656897217
  H          -7.95263022338065     -0.30006839271582     -2.72593456087092
  H          -7.63210837289212      2.06573698891247      0.89955441433661
  H          -6.99549743950344      2.74037725112518     -0.59777033897838
  H          -8.72336999117059      2.43654536565718     -0.42518044592225
