23
Coordinates from ORCA-job 13369486 E -612.692044405122
  O           2.20736641962407      1.29229251895338      1.17878728099050
  O           0.19942444790401     -2.73522452448896      0.06525368414256
  O          -2.26438577060316     -1.79524443460320      0.13176089234809
  C           1.69291317901742      1.13986160105167     -0.15345118347440
  C           2.44276093185116     -0.01218061344130     -0.79103224793817
  C           0.20105115486567      0.89321276023774     -0.12348014587670
  C           2.08828357152152     -1.31427728662001     -0.08636948655886
  C          -0.32028288551789     -0.41295149928026     -0.02573703258313
  C           0.59747549885744     -1.59228751001525     -0.01424724430928
  C          -0.63914147126346      1.99819193761772     -0.15647019718536
  C          -1.72289131106558     -0.56120217502604      0.04386094543879
  C          -2.01582379401542      1.83229943487426     -0.07886177871988
  C          -2.55160935329543      0.56296021061697      0.02265829129480
  H           1.61112293715457      1.86733469950117      1.67109324324263
  H          -3.22537221576378     -1.71374245351557      0.16875525633728
  H           1.87770648428214      2.06217960968464     -0.71594603268815
  H           2.17220704071791     -0.06161350135957     -1.84924523797459
  H           3.51566276527835      0.17967644307104     -0.73442541104830
  H           2.55405025309983     -2.18067947517534     -0.55485836706963
  H           2.44696558862559     -1.27204480829483      0.94622650918960
  H          -0.21449454598545      2.98957196088055     -0.25532073494999
  H          -2.67278996880250      2.69222130696827     -0.10604934722326
  H          -3.62610295648701      0.42556279836292      0.08007534461543
