36
Coordinates from ORCA-job 13386214 E -844.351696071182
  O          -0.92191722795836      0.23581696813420      0.98874429857823
  O           0.84908096417837     -0.72093532416716     -0.20174812786379
  O          -2.53753059218256     -1.91612204581254     -0.23076149945888
  O          -0.69685717481525      0.40689509685089     -2.36139514574741
  O          -0.03535735103967     -3.28803077569034      1.07613850628396
  O          -2.52442326283476      2.45919756911007      1.56045701517891
  C          -0.38650484649151     -0.96003457558489      0.44173213512025
  C          -1.35346990672180     -1.28973765841498     -0.70330526664550
  C          -1.59374389440952      0.10715586815663     -1.31008028134103
  C          -1.43332970108270      1.05201101952802     -0.09565317988649
  C          -0.31647177240486     -1.99258794585675      1.56398216490273
  C          -2.71822607172096      1.69149554233969      0.38814132514276
  C           1.92501238048905     -0.23768195802235      0.60930390601986
  C           2.94012013208291      0.43000858580029     -0.29686812167933
  C           4.16224882267202      0.93490781489381      0.46775228793504
  C           5.18514654399833      1.61311306067204     -0.43967386015742
  H          -2.93040122115628     -1.36460687658129      0.45706059151039
  H           0.19316827889787      0.22176049157543     -2.02826231171915
  H          -0.82353580705248     -3.60498781547453      0.61822413543523
  H          -2.05857263102883      1.90133230485341      2.19556516206356
  H          -0.91389778099429     -1.96240388757120     -1.43437392778922
  H          -2.59606586175526      0.15985889806021     -1.73574193508467
  H          -0.70186774679117      1.82848776709159     -0.33072823508294
  H          -1.25603449462641     -1.96210571464630      2.12129370099432
  H           0.48201039296551     -1.73000695591701      2.25685910446808
  H          -3.47916105164929      0.91263600106449      0.54992340340929
  H          -3.09746728793500      2.36997997743373     -0.37788193445194
  H           1.54037250779262      0.47338192248512      1.34578843116613
  H           2.38346570132304     -1.07742911434188      1.14095810240861
  H           3.25104918182570     -0.28433390755280     -1.06514420413246
  H           2.45838584312060      1.26480741882367     -0.81616978148981
  H           3.84045463014504      1.63639735219289      1.24443769292702
  H           4.63484655765982      0.09637948261739      0.98926559966195
  H           6.04864943295893      1.96428572054709      0.12790093585668
  H           5.54720779068163      0.92411581318434     -1.20647409356412
  H           4.74769452385952      2.47496988021900     -0.94927259296884
