17
Coordinates from ORCA-job 13405 E -844.418018291088
  Cl         -3.09922511191343     -1.32577925982032     -0.04259158431009
  O          -2.74432880824071      1.25393551786529      0.05013461558003
  C           2.11929428069789     -0.06908967062707     -0.00843538398466
  C          -0.68445421692611      0.06393142030387      0.00280688684560
  C           1.46137230159188      1.16440999406034      0.03798776658412
  C           1.34669586249836     -1.22850424337342     -0.05110175886405
  C           0.08239813835086      1.23564046982894      0.04415479546478
  C          -0.03842892325730     -1.16986897999783     -0.04534770617469
  C           3.61972122004942     -0.13313367012613      0.00000017305645
  C          -2.15029495924606      0.22736656618694      0.01155256086966
  H           2.04300644788963      2.07791193437643      0.06848899070184
  H           1.83666956440581     -2.19337646503563     -0.09052088851196
  H          -0.42285400933325      2.19063828360503      0.07938554888838
  H          -0.61933586118563     -2.07899246458198     -0.07953503414226
  H           4.01463268444160      0.18669380495115      0.96797527866411
  H           3.97729335714446     -1.14453576398388     -0.19037002937356
  H           4.04549403303257      0.52963752636826     -0.75609523129371
