25
Coordinates from ORCA-job 13435948 E -389.655127279441
  O          -2.20323716614100      0.95304436996473      0.76336547344099
  C          -1.14573363539152      0.30835760755712      0.03312833392702
  C           1.40860522045365      0.33885323822296     -0.29665241751010
  C           0.18111971612733      1.02939746589841      0.30894590047165
  C          -1.03582314836099     -1.15877398742602      0.47132636318448
  C           1.47136952466682     -1.12178483052799      0.16067433791208
  C           0.17379939420513     -1.87551994561858     -0.13187652492037
  C          -1.56692152574031      0.43348926995763     -1.42615414319176
  C           2.69026780599168      1.09280284645509      0.04909134561107
  H          -1.98944084337950      0.91138016719700      1.70272752684511
  H           1.30048514962012      0.34487820691200     -1.38747529643010
  H           0.10502522781284      2.06075058511837     -0.04516230168319
  H           0.31904198436172      1.08033594455384      1.39718194239002
  H          -0.94627899338467     -1.17717042088717      1.56459381901067
  H          -1.96523975672653     -1.67600100023341      0.22259986454138
  H           2.31725701048653     -1.62409250391939     -0.31687609679939
  H           1.66582319925039     -1.14245506196582      1.24031680164137
  H           0.23265561893850     -2.89309679894689      0.26212162385575
  H           0.04424174537484     -1.97392750318550     -1.21389007400251
  H          -2.53507643684164     -0.04675896217953     -1.57332550237096
  H          -1.66238513830286      1.48627984125983     -1.69484258220796
  H          -0.84535041241158     -0.03005168520418     -2.09721176062012
  H           2.84597660841180      1.11596667343543      1.13137247015459
  H           3.56338126208302      0.61663579554310     -0.40271995083322
  H           2.64989058889622      2.12576068801897     -0.30358515241650
