37
Coordinates from ORCA-job 135255 E -733.984605661581
  O           2.60582741258856     -2.27704336905974      0.11777482684294
  O          -4.60757222199627     -0.67727379186488     -0.03357047796356
  C           3.58164101134798     -0.17456739675412     -0.60741040630609
  C           3.01762946058774      1.25360617715394     -0.50326678318097
  C           1.55712583576653      1.06685359368048     -0.18032230620447
  C           1.23881181971496     -0.26780746636314      0.07097260339646
  C           2.45964686714028     -1.09144195227958     -0.09363714130056
  C          -0.06560051812885     -0.65747674121152      0.41618434792314
  C          -1.05134179800777      0.33675177626439      0.49724885774030
  C           0.57954894800878      2.04044130089969     -0.09426205042013
  C          -0.72560351900245      1.68671200296188      0.24238387084813
  C           4.90124074602411     -0.41707534168946      0.11524163681129
  C          -2.47583729277456     -0.03858871033699      0.82929485673826
  C          -0.38855358365181     -2.10082137080940      0.70217277611869
  C          -1.76591621627098      2.77106278849146      0.34630728245693
  C          -3.28834010996541     -0.35218676995743     -0.42164003531168
  C          -5.43743045579620     -0.99960855175465     -1.12781495999402
  H           3.70475729080428     -0.43953774572022     -1.66363589505512
  H           3.51391989563317      1.80911522245038      0.29835449852221
  H           3.15953736178713      1.83160137307153     -1.41878658299945
  H           0.82023162445384      3.08013869061802     -0.28485867393741
  H           4.81782097546168     -0.14662030671496      1.17069990277979
  H           5.17621892975753     -1.47014282880021      0.05820613051246
  H           5.70354226194445      0.17836603842653     -0.32440680987050
  H          -2.50487227338060     -0.91036600664167      1.48198922242402
  H          -2.97612912943521      0.76761922902301      1.36556091819509
  H          -0.62944274143448     -2.23665827068685      1.76060565612352
  H          -1.25679283102303     -2.43672542580882      0.13343591318542
  H           0.45629538735120     -2.74056063188613      0.46920955196782
  H          -2.13717077013999      2.86770757709030      1.36988241697793
  H          -1.34855782995033      3.73301715314952      0.05134245267868
  H          -2.63174527283685      2.57136108151039     -0.28741396164063
  H          -2.83606918608155     -1.18931430151202     -0.97137666212103
  H          -3.29505335390403      0.51147834295710     -1.10187135397455
  H          -6.42405327285706     -1.23388526481692     -0.73066953707148
  H          -5.52339620138102     -0.15783948615999     -1.82781211138606
  H          -5.05610225035376     -1.87022861691995     -1.67744797350537
