11
Coordinates from ORCA-job 13566 E -231.148687035658
  O          -1.67113994177382     -0.95736671378966      0.19430501311984
  C          -0.09753495617277      0.94419927242030      0.25853783996770
  C          -1.35587693445673      0.31095952253008     -0.35058290261256
  C           1.11215669844652      0.16074405674265      0.05134249448896
  C           2.10235730804970     -0.49030041347016     -0.13501580854660
  H          -1.81542908265513     -0.86463504502095      1.14260824813132
  H           0.03211774492642      1.94083944720030     -0.17687022858587
  H          -0.25516493143205      1.09831980625841      1.33236014260618
  H          -1.20559502484356      0.14568389287379     -1.41742519554200
  H          -2.19041102394808      1.01305964919891     -0.22921639316717
  H           2.97698614385951     -1.07044047494366     -0.29855620985980
