25
Coordinates from ORCA-job 13572 E -389.649286035683
  O          -2.39844253210125      1.31978795229517     -0.24387112232045
  C           2.65879712299413     -0.26721499057490      0.06784186586023
  C           1.27917178214157     -0.94712631311983      0.05228793552406
  C           0.07747644040670     -0.00540126046736     -0.01594572989486
  C          -1.24235486969264     -0.76316692305659     -0.02807277099856
  C           2.86067292073157      0.61206889518067      1.30413213349342
  C           2.93470847051389      0.51929374766669     -1.21569017667490
  C          -2.47365989430052      0.12000874042829     -0.11003383044003
  C          -3.80963693036741     -0.58470004141487     -0.00869725378281
  H           3.39626191678909     -1.07654566656917      0.11931406657709
  H           1.24120850768229     -1.63371423225301     -0.80123708205478
  H           1.19121633202658     -1.57222535140702      0.94831215283555
  H           0.08057272416304      0.68149562434106      0.83253912799291
  H           0.13012471307928      0.62137946350921     -0.90750676700546
  H          -1.28348237616808     -1.45821863327777     -0.87639507903999
  H          -1.34010655854597     -1.39889421283728      0.86026702068410
  H           2.66309933874965      0.05593134790937      2.22376564433011
  H           3.88636362132596      0.98404725191081      1.35181074632440
  H           2.19886594373357      1.48064156393304      1.28905961386439
  H           3.96196032525513      0.88978014481722     -1.22983765423825
  H           2.79124399558824     -0.10371065359760     -2.10184639955651
  H           2.27432320899397      1.38455322161803     -1.30425559609815
  H          -3.93258913851085     -0.99087189441741      0.99928095723919
  H          -4.61696888144760      0.11455072252871     -0.21493659509771
  H          -3.85842718304034     -1.42896350314544     -0.70026020752298
