19
Coordinates from ORCA-job 13603 E -365.201688663659
  O           1.65265674948041      1.42149311233019     -0.01298154866328
  N           0.66296487734172     -0.62097886903232      0.04592315994701
  C          -1.79939642438590     -0.79380907837719      0.35750329100972
  C          -1.90720765160569      0.55626422200855     -0.33697291842247
  C          -0.51018882729079     -1.48383386871512     -0.05417444168716
  C          -0.72639263836359      1.42491257322191      0.08117988182963
  C           0.63409443458623      0.74676018221700      0.01894835435950
  C           1.94098571355244     -1.30113785902713     -0.05989612504917
  H          -1.81057003189427     -0.65000455213688      1.44230494135353
  H          -2.64097697924866     -1.44334701995686      0.10805538008194
  H          -1.89941379201466      0.40993330863330     -1.42207775778112
  H          -2.84848935784125      1.05244882135144     -0.09178774666576
  H          -0.60018796799061     -1.85156346030420     -1.08616439276488
  H          -0.33293172604447     -2.36067016064283      0.57499084389618
  H          -0.64445000346219      2.32980977127123     -0.52020915161586
  H          -0.85295658246191      1.75434464144969      1.11770774077316
  H           2.03720469093253     -2.04351563759525      0.73653056793538
  H           2.02800239686624     -1.81626916750724     -1.02261348056436
  H           2.73584911984444     -0.56698995918831      0.02463940202802
