24
Coordinates from ORCA-job 13629 E -389.429054870236
  C           1.21323236615289     -0.09273857262397      0.31643585357648
  C          -1.04524566026153      0.79698605718987      0.05842718972849
  C          -1.55315172798307     -0.50656330890950     -0.06252387347715
  C           2.69365054444034      0.14325496413886      0.46714275942955
  C           0.32224933288370      0.97643566560329      0.24457260319030
  C           0.69638317351161     -1.37846019062021      0.19727245228435
  C          -0.66551296453443     -1.57611528882761      0.01075218849434
  C          -1.96220034180424      1.98746330838912     -0.00673708986770
  C          -3.02423806424691     -0.74757242248698     -0.26110173574663
  C           3.40044536160993      0.31023257041612     -0.88349662757922
  H           2.86122457341156      1.03620119892730      1.07520929352978
  H           3.14230857640884     -0.69360555569794      1.00865204426034
  H           0.70657616308590      1.98677148976127      0.34063258465746
  H           1.36112805578291     -2.23285923310782      0.25351832473621
  H          -1.05022389554541     -2.58578484769053     -0.07623293231444
  H          -2.72138584461943      1.95281928521784      0.77955115378864
  H          -1.40501674937420      2.91719910494120      0.10551872309192
  H          -2.49824371099332      2.02901448340104     -0.95895084347670
  H          -3.61381951826936     -0.34484591836460      0.56732038001699
  H          -3.39184679935262     -0.26573433575756     -1.17139347505387
  H          -3.23819212751830     -1.81346697240704     -0.33676594637522
  H           4.47100225269504      0.48014053135922     -0.74942388742421
  H           3.27098681002806     -0.58099807138131     -1.50068378530240
  H           2.98729319449202      1.15722505852993     -1.43487235416731
