15
Coordinates from ORCA-job 13625 E -797.877403683251
  S          -1.36059010263771     -1.51951006739150     -0.00006341316153
  O          -3.37065389077636      0.27508248228702     -0.00020566204175
  N          -1.20137636225427      1.05665814977550     -0.00004380476783
  C           0.11616993840722      0.62951097242799      0.00001999654524
  C           0.22275568001980     -0.76716206610389      0.00002055377033
  C           1.25108055207381      1.42723951011117      0.00006864424406
  C           1.46741077677329     -1.37680593012626      0.00007141852526
  C          -2.18165615490944      0.09097551407853     -0.00010813029338
  C           2.49681200125313      0.81007967849010      0.00011870870021
  C           2.60619722805287     -0.57812732152941      0.00012427694913
  H          -1.47580993404631      2.02644308392395     -0.00006721172102
  H           1.16568712108180      2.50639237740083      0.00006064236774
  H           1.54971827430332     -2.45545243517446      0.00006848957307
  H           3.39042619543473      1.41983334040544      0.00014758125655
  H           3.58322767722411     -1.04219628857500      0.00016291005390
