103
Coordinates from ORCA-job 13632905 E -2083.507753420436
  O           4.43204080370956     -0.89324642016338     -0.24370253596373
  O          -8.68145161576575     -1.01373950844529      0.19507184519963
  O           1.93409384417005     -4.22626008500586     -0.57456936920517
  O           5.52486951907809      1.10642998053518     -0.32113481918408
  O           6.37878290176971     -1.93501166504736      1.49269609902636
  O           8.84701429804000     -0.59855766637939      1.41134507973011
  O           8.66367437958444      2.24335401841695      1.22080983687025
  O           5.69415956601116      3.26757488012991     -1.67338247636742
  O           7.32451032678676      4.12482700588807     -0.42312194832144
  C          -2.26095639953080     -1.23105115836199      0.07656549298314
  C          -1.25455802400777     -0.25572343612550     -0.60667949036593
  C           0.15670938291906     -0.83305819634514     -0.99677655463785
  C          -3.46963244347491     -0.37098954918857      0.66262393049680
  C           0.74367080508842     -1.50000396352385      0.28129007897185
  C          -1.53329849148959     -1.97408657012189      1.21347159206994
  C          -4.04995407258670      0.52990710577687     -0.42315166793546
  C           2.25734330857310     -1.88474396416248      0.24226790834218
  C          -0.20005369183932     -2.58807678940719      0.79904254568817
  C          -5.50411980239400      0.94085117608023     -0.32641447279150
  C          -6.44740647327162     -0.31236706935742     -0.35588289984647
  C          -1.91659086838183      0.51947377350418     -1.74973473218896
  C          -4.62553970313517     -1.26140550044788      1.20920095498650
  C           1.04946681143687      0.37649407180094     -1.35466341292347
  C          -5.73078359384328     -1.56469716949350      0.20000474771440
  C          -2.78281941315506     -2.27917084275127     -0.91896295979936
  C           3.02434708891015     -0.59865817774783     -0.13714632449471
  C          -3.33029863645642      0.91376425350985     -1.47408363554865
  C           0.11841644264382     -1.79050242375573     -2.20941929361148
  C           2.53730833413549      0.04678345688405     -1.42324837862086
  C          -2.98948002714273      0.51072324484662      1.84260141096917
  C          -5.82603069614298      1.88458413205091      0.84308010927640
  C          -7.69993210229087     -0.01801244578446      0.49617048879709
  C          -7.25156889883583      2.47601407782121      0.76647559216196
  C          -8.23226680655818      1.38879606302674      0.25909862682118
  C           2.65561822163173     -3.00815402891933     -0.73982147747301
  C           2.71872652860021     -2.29761447704998      1.65046468036961
  C          -6.84003292496502     -0.59012078089477     -1.81240946070703
  C          -7.66186665709536      2.93742444747615      2.16976471290445
  C          -7.28015041031838      3.67784754458396     -0.18340667184984
  C           5.29206962478456     -0.09368719869570      0.45122895273182
  C           6.61657221568956     -0.81836358021306      0.65652112281793
  C           7.62974267706921      0.12123209184374      1.29375842501635
  C           6.41587045952087      2.02962015363296      0.27711646410591
  C           7.80131474438965      1.39761985469323      0.48972493923866
  C           6.52476884345133      3.24712464006549     -0.63162774036520
  H          -9.44304005442650     -0.86844990805787      0.76566028310005
  H           2.21197475829486     -4.64174132844045      0.24754599183921
  H           7.24201963353905     -2.27089776473448      1.76605839593610
  H           9.50619262824913     -0.00250457703912      1.78810338634317
  H           8.64787223977302      3.11598516010433      0.79572232057568
  H           5.18929215928326      2.43305825021245     -1.66626372132721
  H          -1.01107895381567      0.48626175465717      0.15638446183823
  H           0.70981700441410     -0.70377392553508      1.04023206509578
  H          -1.32759826313003     -1.28666461847928      2.03434357977447
  H          -2.18363555143490     -2.75343673214508      1.61766600304727
  H          -0.33124904171869     -3.37004747322797      0.05478641722092
  H           0.23153305709946     -3.07879056489406      1.67134691477173
  H          -5.71196172692640      1.51126111652915     -1.23466269189072
  H          -1.33650390638074      1.41936369601761     -1.97146456043259
  H          -1.90396428214129     -0.06039291879917     -2.67866223063393
  H          -4.21971964751703     -2.19413511228836      1.60296350575321
  H          -5.06905730036338     -0.75736544010233      2.07193486356225
  H           0.73798224949055      0.80538028868413     -2.30837385178785
  H           0.90063662523583      1.15656737468269     -0.59968276295547
  H          -6.47816029449233     -2.21838548383300      0.65452371323365
  H          -5.31609097215259     -2.12251721345029     -0.63590442494318
  H          -3.43937532982623     -2.98894849176053     -0.41844307019323
  H          -3.33759438338292     -1.82592875133256     -1.73880479300733
  H          -1.96973678553311     -2.85546343040989     -1.34696209797999
  H           2.88908464971304      0.11496338493795      0.68519266017895
  H          -3.80143949508662      1.53993711835505     -2.22711894268834
  H           0.05203137617359     -2.83593213243800     -1.91935386597901
  H          -0.72264562205282     -1.57524812847686     -2.86424955493754
  H           1.01449078663029     -1.68782703645871     -2.81941891862008
  H           2.76098771564226     -0.61077763573682     -2.26450043237557
  H           3.10760510651826      0.96220965748759     -1.59141232841142
  H          -2.80823758746520     -0.09137627504910      2.73336680817809
  H          -2.07969865373967      1.06129016822258      1.61029085898596
  H          -3.74542807390291      1.24479776819468      2.10207562315541
  H          -5.72129238536375      1.35987053608659      1.79212533668021
  H          -5.09990304120837      2.70121952107603      0.85989613579284
  H          -7.41952084458865     -0.11570457712639      1.55345339355928
  H          -8.42402488478103      1.51115926671441     -0.80869114172496
  H          -9.19973139562816      1.50494912992638      0.75773070480797
  H           3.72839878969483     -3.18422692529597     -0.63258839525548
  H           2.47930914263277     -2.71356825965629     -1.76858611282721
  H           2.40712421821173     -1.56017027906262      2.39448594396948
  H           2.29462367120514     -3.25396349895109      1.95679609263872
  H           3.80424198004163     -2.38707081369981      1.68593054891316
  H          -7.40820637491626     -1.51514611848479     -1.89676194480557
  H          -7.44369115809809      0.21533836100879     -2.23412901236053
  H          -5.93458893436317     -0.68104399356391     -2.41563922605769
  H          -7.72751228299120      2.09085222978807      2.85793696631200
  H          -6.93323647294418      3.64218722359810      2.57813441400952
  H          -8.63559276312749      3.43292546191249      2.15050472474359
  H          -6.64952855078710      4.48756363327585      0.19177836044153
  H          -6.92372164246102      3.40632163337947     -1.17907198415463
  H          -8.29687439001102      4.06390594400523     -0.28967838247709
  H           4.87114357947274      0.20762386554301      1.42232149288279
  H           6.98059934676630     -1.13686586949208     -0.32775632780952
  H           7.26405658881537      0.40068368193605      2.29199758910794
  H           6.03686776646345      2.37592446830020      1.24882298812792
  H           8.22865459808568      1.14913127820757     -0.49068308402923
