54
Coordinates from ORCA-job 136435 E -744.580686425879
  O          -0.57397415568029     -4.26289347947432     -0.70541835688858
  C           0.02632173012994     -3.35640934371028      0.22965470507978
  C          -1.03222918382141     -2.49067806406660      0.91872156281396
  C           1.07567407436833     -2.57992754283432     -0.55509465629518
  C          -1.79328646252491     -1.54003035067984     -0.00188666146489
  C           1.87582269145009     -1.58618411986544      0.28209927293025
  C          -2.94110721227280     -0.82214033748742      0.70381243209570
  C           2.99053025239913     -0.90622797612629     -0.50936339444829
  C          -3.69078336128887      0.15443382435901     -0.19870864377377
  C           3.78659160906562      0.10569836783510      0.31052199802052
  C          -4.84516042476310      0.86781112729625      0.50061137221825
  C           4.89928717169719      0.78956031135047     -0.47993482139727
  C          -5.59041757716636      1.84912545460780     -0.40048272223678
  C           5.69388742176720      1.80342672882816      0.33919027071147
  C          -6.74646197741188      2.56239620783147      0.29742996745412
  C           6.80624954006688      2.48963523591220     -0.45074605922036
  C          -7.48243151080402      3.54315396175124     -0.61175641264624
  C           7.59406429458550      3.50092516953300      0.37794425779397
  H          -1.22968767014835     -4.79215341841764     -0.23840296438986
  H           0.54266400179968     -3.93615320073579      1.00848423707757
  H          -1.74518271472322     -3.16290565078547      1.41288325867705
  H          -0.55516978623231     -1.92530859688190      1.72542175195590
  H           1.75301464620335     -3.30972458438772     -1.00709313017544
  H           0.58572358187673     -2.06319422933594     -1.38462728156596
  H          -1.10582360328747     -0.79318095695254     -0.41078701750487
  H          -2.17997696616447     -2.10068900493170     -0.85744510862013
  H           1.21042444972283     -0.81741978466274      0.68776657044710
  H           2.30974970670785     -2.10002625743810      1.14781378091528
  H          -3.64539146261687     -1.56425977946018      1.09748748056614
  H          -2.55271429194145     -0.28253249452378      1.57560245323377
  H           3.67059623303529     -1.66880280027100     -0.90500458194996
  H           2.55767691923651     -0.40470118713229     -1.38239431503351
  H          -2.98715768421620      0.89982078475573     -0.58685103374152
  H          -4.07370772192174     -0.38364665375466     -1.07329974720707
  H           3.10436205430655      0.86693168087590      0.70632723321672
  H           4.21924425978899     -0.39606583420707      1.18376350972020
  H          -5.55094690308194      0.12248123334902      0.88513686424784
  H          -4.46199760894623      1.40216655440286      1.37766564236955
  H           5.58229713442398      0.02878536439726     -0.87494786206714
  H           4.46633160421442      1.29012253793824     -1.35364144848358
  H          -4.88514512589775      2.59556569523004     -0.78416464250488
  H          -5.97291565314333      1.31575817991967     -1.27850989212741
  H           5.01089350460754      2.56406937867945      0.73518717273936
  H           6.12794663921506      1.30307539646948      1.21273972184820
  H          -7.45165228032195      1.81599076445918      0.67843011027829
  H          -6.36343041111141      3.09351589354826      1.17539013033795
  H           7.48812013213561      1.72908751757358     -0.84589518814171
  H           6.37160843468678      2.98960691833240     -1.32288768863912
  H          -8.30270993612560      4.03773979518105     -0.08761807820925
  H          -6.80689465742048      4.31923574039327     -0.98064157937030
  H          -7.90297803390479      3.03236736709404     -1.48177978082116
  H           8.06632232166368      3.02051033094690      1.23871792420621
  H           8.38112587522502      3.97583046278205     -0.21124988956454
  H           6.94100509255949      4.29028166248989      0.75897427753362
