24
Coordinates from ORCA-job 136449 E -405.718782879544
  O           2.95872811307222     -1.08618968720871     -0.79918608206776
  N           3.89533299144390      0.55167162112537      0.43921926096405
  C          -0.99568874544479      0.60561996525136     -0.10698996114231
  C          -2.21803905374035     -0.29188770090936      0.06816745701031
  C           0.32486024827419     -0.15207298468012     -0.00510381896646
  C          -3.54453671097507      0.45663268757802     -0.04225087469840
  C           1.54195504511882      0.75439503849799     -0.17208964600947
  C          -4.75986800839947     -0.44957430379849      0.13609379807781
  C           2.84675016152095     -0.02650078770969     -0.21241973930561
  H           3.81060980664060      1.43196386822239      0.91338663446466
  H           4.79381782123076      0.09995117617238      0.39922667812423
  H          -1.05087266718012      1.10571287587384     -1.08096143081829
  H          -1.02312179958982      1.40293391016266      0.64521706786311
  H          -2.18958144623099     -1.09058154757377     -0.68156644520932
  H          -2.16463129967316     -0.79029528020533      1.04294330313984
  H           0.38401736287070     -0.65944594034316      0.96324595400579
  H           0.37101573263889     -0.93551409614480     -0.76382687536828
  H          -3.57024364349551      1.25576634992562      0.70643058141992
  H          -3.59720695901694      0.95255846407888     -1.01734825988247
  H           1.47024958130168      1.29270965521303     -1.12360667094412
  H           1.56784732687303      1.51271168073602      0.61578691833359
  H          -4.74873303246326     -0.93313830097317      1.11623651839144
  H          -5.69324563849463      0.11060438869305      0.05184942502985
  H          -4.77542687250561     -1.23866923414003     -0.61993364038613
