24
Coordinates from ORCA-job 13682637 E -463.622688897993
  O          -1.15210191625670     -1.94222669593396      0.13091608788871
  O           1.54886884403499     -1.76330969249420      0.14990437386289
  C          -0.57300469269084     -0.66679705067221      0.46854102786333
  C           0.76967945622962     -0.64946953529593     -0.27813684240687
  C          -1.50633351629728      0.46514564350334      0.12025295685756
  C           1.56061734133303      0.61192743652669     -0.03778056435382
  C          -1.90287270236216      0.61806992245654     -1.31969632712091
  C           2.01547174524120      0.87696879451405      1.36773174031996
  C          -1.96044438760146      1.26549323431068      1.08145550623858
  C           1.83804666133651      1.42798733729881     -1.04934979809749
  H          -1.93766346383897     -2.07047044047151      0.67351233160944
  H           0.95297216131200     -2.52419673982620      0.15670588086907
  H          -0.36132365299332     -0.64293520769777      1.54167388676775
  H           0.55809057174524     -0.73884293028736     -1.34947517117881
  H          -2.70797032004369      1.34397686742046     -1.42973614990847
  H          -1.05653400321311      0.95812395150816     -1.92102962003302
  H          -2.22988272759907     -0.33727109715934     -1.73454427333587
  H           1.16619603394630      1.06147562526251      2.03121554477594
  H           2.55116170945274      0.01159554302170      1.76150485558887
  H           2.66948120006682      1.74743041937940      1.40880419979564
  H          -2.63792828228831      2.08346757943150      0.86845291168954
  H          -1.66027933682991      1.13544170700865      2.11448562729315
  H           2.39637763516966      2.34434928325589     -0.90174745868431
  H           1.52131764214670      1.20516104494008     -2.06087272630088
