29
Coordinates from ORCA-job 13747942 E -467.025191660604
  O           3.63477522833937      0.70358803214280      0.84236717693596
  C          -1.12122357089654     -0.04404245344909     -0.41033710547930
  C          -0.32502646766427     -1.29686299152268     -0.02570157583478
  C           0.98209089888593     -1.39878666053925     -0.81032925448163
  C          -2.31851174021935      0.22002745157956      0.53603292021935
  C           1.90906568492112     -0.20501705576534     -0.55255088974858
  C          -0.19878429707642      1.14693872187410     -0.48845180567360
  C           1.12941787219371      1.08021786398898     -0.52800960753615
  C           2.72837057831580     -0.39093731907050      0.72455108777579
  C          -3.20884511661849      1.35800225075852      0.02881909091005
  C          -3.17409503554950     -1.03218512013630      0.74742775504632
  H           4.08388040599790      0.64599120254665      1.69113751977557
  H          -1.54952316293030     -0.20963862282823     -1.41124794705142
  H          -0.11192002404220     -1.26405108037213      1.04818501292310
  H          -0.92256965393925     -2.19268745283199     -0.19822083940955
  H           1.49598229451508     -2.33398292370924     -0.57084990933949
  H           0.74894576791068     -1.43660829505637     -1.87828653364243
  H          -1.90306612856992      0.51598176795418      1.50731017174814
  H           2.63986437694180     -0.14170670133557     -1.36707090033201
  H          -0.66063795983821      2.12699373436418     -0.50506510396794
  H           1.70986468634911      1.99476278426615     -0.54359564914763
  H           3.27780701132872     -1.33939373880828      0.66429020687759
  H           2.06062083056392     -0.43523369571609      1.59285961648671
  H          -4.04184543738233      1.52728369455403      0.71417566504056
  H          -2.67258878142757      2.30109999699184     -0.07124758523243
  H          -3.63034479809558      1.10754157033185     -0.94912721690429
  H          -4.04380780796248     -0.79925980153887      1.36510887479770
  H          -3.54171714232189     -1.41612530976739     -0.20906081178596
  H          -2.62457851172880     -1.83305984890551      1.24126563703033
