23
Coordinates from ORCA-job 13800357 E -276.321916706710
  C           0.83273681007787     -0.61262944643584     -0.40864264802710
  C          -0.59479327937611     -0.13792385970524     -0.73146308242868
  C           1.61651501979922      0.35974238441338      0.48464868251374
  C          -1.50793612507691      0.10497765624717      0.47045030876612
  C           0.84367608615743     -2.01940124816166      0.19434143270492
  C           1.73932028423425      1.77649216344998     -0.07064945006615
  C          -2.91197538348724      0.53629554057035      0.05277711020104
  H           1.36354107614632     -0.66448436631147     -1.36760846617169
  H          -0.54331088987241      0.78161644054734     -1.32235732827890
  H          -1.06292707248152     -0.88326529455772     -1.38395913529813
  H           1.15606819892975      0.39289839503588      1.47713645471428
  H           2.61883020258951     -0.05308620155834      0.63617209028562
  H          -1.57490584458665     -0.80199211851118      1.07755810826716
  H          -1.07380299606296      0.87298757276239      1.11681171228687
  H           0.37462219517641     -2.03565073253791      1.18070035220374
  H           0.30721427062499     -2.72726669448641     -0.44175376303386
  H           1.86630593097309     -2.38419571989951      0.31345176867435
  H           2.38376551981392      2.39028663257001      0.56171935359371
  H           2.16999376104434      1.76864373900953     -1.07548944061485
  H           0.77002494965971      2.27465365888087     -0.13158968074840
  H          -3.55198621864972      0.71217566670520      0.91974793111464
  H          -2.88121449738993      1.45957155355265     -0.53158161491694
  H          -3.39003099824337     -0.22794572157948     -0.56528269574147
