22
Coordinates from ORCA-job 138219 E -388.182512635339
  C           1.32957584733493      0.02359554282577     -0.49631242722329
  C           2.24448678962951     -1.06845610246803      0.12007331244938
  C           2.22610633900547      1.09320391390962      0.18356077371985
  C           3.32858146344550      0.01655731865436      0.32650421458967
  C          -0.14634534046542      0.00365426373895     -0.22757872031014
  C          -0.86227641980437      1.19203546295243     -0.08195629484887
  C          -0.84090488279557     -1.20270672967271     -0.13775473403142
  C          -2.23330951987833      1.17717498740734      0.14280138172494
  C          -2.21198534337336     -1.22270749664415      0.08688235382757
  C          -2.91419329654793     -0.03159049764585      0.22791332110219
  H           1.49553014641243      0.05684704011839     -1.57842913615488
  H           1.84282873339933     -1.42109451657960      1.07154309677500
  H           2.49587775649018     -1.93047957888983     -0.49755654419370
  H           2.46247717904637      1.99405761144565     -0.38240715879191
  H           1.81867185528828      1.38254881286486      1.15372754095842
  H           3.89088905544703     -0.00607426719244      1.25932661749359
  H           4.03354437074021      0.04697042171363     -0.50532871669074
  H          -0.33991495459910      2.13918643222083     -0.14198424481788
  H          -0.30190953375212     -2.13661661415030     -0.24167816315879
  H          -2.77015004484800      2.11095211616067      0.25515790141542
  H          -2.73204544588090     -2.17012390958804      0.15538133579891
  H          -3.98174975429414     -0.04524621118158      0.40658729036667
