41
Coordinates from ORCA-job 13846639 E -1109.867348267482
  O           0.99592505760190     -0.59725886675143      1.12232340441054
  O          -0.25032510564200      2.84158002993119      0.81516294038595
  O           2.39678457378692      2.87340201879873      1.02768535120090
  O           4.85033860123846     -2.83521050890999     -0.30661956045269
  O          -3.51914917012500     -2.48610969043441     -0.31317293447668
  O          -5.60954679040363     -0.70912777889829      0.00545851497598
  C           0.39420144061357      1.66238501100696      0.35904533186207
  C           1.86859631720609      1.96393190794190      0.03655985568633
  C          -0.32780416014671      1.17483638441713     -0.90683804113286
  C           0.36018214546481      0.63216230619040      1.48537281557828
  C           2.67111922804651      0.69985184285402     -0.05029002793889
  C           2.19896151621198     -0.49879525148455      0.50292060219566
  C          -1.73714683097717      0.69818714520070     -0.67740933639254
  C           3.90730703692030      0.67888321040973     -0.69574938951460
  C           2.93970963304654     -1.67305588932966      0.40527752187184
  C          -2.01571023376918     -0.66367084182583     -0.57660312921384
  C          -2.78889606409358      1.59724352453818     -0.52560236435083
  C           4.66118328263600     -0.47600109182811     -0.79514669230584
  C           4.16518842769600     -1.65916413760977     -0.24103753765252
  C          -3.29968342604499     -1.13334448887154     -0.33999355889823
  C          -4.07893455745814      1.14259432228224     -0.28883071748733
  C          -4.34937925284841     -0.21787365573544     -0.20026325874642
  C          -3.88482989351587     -3.02104552518691      0.95902104399054
  H           0.42060244957663      3.34125790509242      1.30405100791881
  H           2.93342289830483      2.36329630685820      1.64440264263839
  H           5.68017784770693     -2.70001282307833     -0.77788171353946
  H          -6.22837037541821      0.02730061260754      0.06249753951903
  H           1.91726666667190      2.51397104080242     -0.90604996830961
  H          -0.32211003732933      2.01242752037611     -1.60760272486786
  H           0.25841468807077      0.37218150135609     -1.35637777233834
  H          -0.66472455879178      0.37855076616850      1.74073995082596
  H           0.85431872788438      1.04696192014247      2.37106087733387
  H           4.27766620392928      1.59776813612779     -1.13431812779238
  H           2.55578435956180     -2.58856126192856      0.83245226992276
  H          -1.22514855509810     -1.39624658731876     -0.68001546038294
  H          -2.59649379151053      2.65986438033988     -0.57999834522077
  H           5.61747818812286     -0.46862270757360     -1.30458413601283
  H          -4.89249533716241      1.85260018332336     -0.18061602506275
  H          -4.82567096661920     -2.59693212610985      1.31337011581249
  H          -3.99805287273193     -4.09424645883297      0.81748471638963
  H          -3.09524631061230     -2.83228028505796      1.69341331957121
