40
Coordinates from ORCA-job 13854256 E -661.111997461644
  O          -1.06121241772891     -2.24019091091049     -1.20588928819888
  C           0.99167697359358     -0.39914913590290     -0.59023112377935
  C           2.32762467778262     -0.40364519820549      0.11909013651494
  C           1.85410112431211      0.84287986855565     -0.59772779260216
  C          -0.34408122032419     -0.37430712515401      0.10007673042812
  C          -1.35711801656566      0.61777834828783     -0.55556759791997
  C          -1.08490571778324     -1.72164075554930      0.13728363253221
  C           1.41055374404865      2.10975165208545      0.10133926637155
  C           3.43716269553638     -1.18959530804901     -0.54658396977507
  C           2.41433248122457     -0.43946089711838      1.62840724550542
  C          -2.75004248573783     -0.03519675938799     -0.35747269284200
  C          -2.50982205965153     -1.28835412016918      0.49549694691701
  C           0.11302674285535      2.71825553452231     -0.47377586673287
  C          -1.14921373820855      2.01785410883166     -0.02522969258469
  C          -0.47053222496452     -2.73214201150828      1.09221296446633
  C          -1.96819365430569      2.61858698436246      0.83645184944256
  H          -1.60411538365587     -3.03572598011248     -1.22893195048820
  H           0.96449332295392     -0.95195699930889     -1.52124876154117
  H           2.35484266060924      1.03856660147650     -1.54113948085381
  H          -0.22765608965546     -0.07227635522930      1.14213453820274
  H          -1.13410152303051      0.64088754403392     -1.62518977166273
  H           1.26987058328856      1.94920377825543      1.17110691340691
  H           2.20906942052218      2.85160201014275      0.01131597517466
  H           3.40211413281466     -2.24226695695471     -0.25072538894761
  H           3.35612090099779     -1.14666514699964     -1.63396147585045
  H           4.41909418213435     -0.79691778173659     -0.26630770488384
  H           1.60142016543223      0.08899689768109      2.12220343430849
  H           2.39672500387870     -1.47282416061921      1.98470826244336
  H           3.35179683314285      0.01037938218525      1.96703064346917
  H          -3.47709313147685      0.63417056970650      0.09577861012199
  H          -3.14784198316960     -0.32100808331945     -1.33059122813204
  H          -3.23800341239080     -2.08298204224702      0.31286043993424
  H          -2.55262535933321     -1.04668260228075      1.56111017848791
  H           0.05398954913236      3.76593596898573     -0.17245257737166
  H           0.17310332576540      2.70282931786039     -1.56775754494301
  H          -0.44344562281870     -2.34396961301019      2.11192302999205
  H          -1.05201704798557     -3.65839430675338      1.10063567867602
  H           0.54753527410725     -2.97161631185946      0.78374505978741
  H          -1.75276298210319      3.61378009174030      1.20618562623627
  H          -2.87290272324286      2.15683090367292      1.20728274669018
