40
Coordinates from ORCA-job 13854252 E -661.100811630760
  O           2.91101306052227      0.08668784538596      1.26638686118114
  C          -0.52267632592961      0.98952598621893      0.72110092046836
  C          -1.28950848032458      1.78268504246426     -0.32014695776051
  C          -2.00220258926574      0.73890266347414      0.51528379004874
  C           0.55576798070536     -0.06432950152888      0.55847278049667
  C           0.29841653956601     -1.23738070060177     -0.42543732542903
  C           1.99825109491190      0.47066056273348      0.21723141746603
  C          -2.54355988842845     -0.57479052304065     -0.02460802019672
  C          -1.12132600937026      1.61201816239517     -1.81433836909562
  C          -1.55788655444879      3.23057037330828      0.04277677087335
  C           1.70164395050945     -1.67952026198220     -0.84575752749805
  C           2.43168927424145     -0.34940024960035     -1.00304774248536
  C          -1.95597355547023     -1.81276841164522      0.67440828855440
  C          -0.63490676938507     -2.29212865309413      0.10916328099683
  C           2.11137920578191      1.97157845098029     -0.00462904348971
  C          -0.34368396631964     -3.59047717551191      0.07828784867115
  H           2.63688585596508      0.52291890600886      2.08115967519398
  H          -0.32230886509901      1.59146812116497      1.60285928096962
  H          -2.63168229033205      1.14925902203862      1.29858786421484
  H           0.66108764710835     -0.52674268918559      1.54496284958584
  H          -0.17262329365267     -0.82842417608834     -1.32094182459378
  H          -3.62567869541548     -0.57122642479248      0.12141515477086
  H          -2.39610533137075     -0.66156622511525     -1.10237950818036
  H          -1.01835360858538      0.58104952658586     -2.13744218100417
  H          -1.99006925512719      2.02958718139826     -2.33081321072713
  H          -0.24248972454428      2.15490810322974     -2.17080147282249
  H          -1.70432813370638      3.35250814008063      1.11724976171805
  H          -0.72290306278470      3.87082730752964     -0.25626616201955
  H          -2.45608264063372      3.59780027434449     -0.46192669862078
  H           2.16976212845238     -2.26713580216827     -0.05346755194862
  H           1.69760721813496     -2.28003144289111     -1.75604420830810
  H           2.09683237106722      0.15432007707228     -1.91399154717425
  H           3.51728511985204     -0.43578932706943     -1.04211514018489
  H          -1.82406112564811     -1.57207236936140      1.73546728457709
  H          -2.66869592122114     -2.63878169965117      0.63602394626130
  H           1.83163454958096      2.52868799853328      0.89267503041161
  H           3.14467598055328      2.22028448915714     -0.25079916542458
  H           1.46837923391181      2.30695778294656     -0.81647100344707
  H          -1.04882665132469     -4.33029505547652      0.43873654224362
  H           0.59892752752350     -3.96335432824616     -0.29804568829269
