49
Coordinates from ORCA-job 13870572 E -1152.527736916450
  O          -0.07209096379088      1.37423742220230     -1.26913018779972
  O           2.93109705772348     -2.44850324352737     -0.60942020390352
  O          -2.37602584155269     -2.72507268829687      0.50633759012472
  O           5.32353092442397     -1.47473949900218      0.38657454573861
  O          -4.96888132092520     -2.31381933772531      0.24495121689237
  C           0.27727043304463      2.53543880315213      0.75798293057896
  C          -1.10429843487725      2.93806096215064      0.20255539983547
  C           0.95598543569912      2.03317104505423     -0.53583091651605
  C          -1.35786706259299      1.90771690051324     -0.94388972111880
  C           0.24619158287055      1.51784979751144      1.89509379691816
  C          -2.21971659611760      3.09276882990138      1.22491258680369
  C           2.12907123916511      1.11121743474527     -0.34141640258954
  C          -2.32652846325945      0.78422429311104     -0.65227694319108
  C           2.02695402313296     -0.25582121194539     -0.57187634031044
  C          -1.87405894498037     -0.45932516571051     -0.21225589880172
  C           3.33420864599202      1.61316852323901      0.13920369305915
  C          -3.69000114012722      0.97586714918408     -0.81406166617188
  C           3.08335526138062     -1.11789718270359     -0.31631061758093
  C          -2.75359442994287     -1.49038967292257      0.08374243511960
  C           4.40143338193669      0.76357814655833      0.39595902458413
  C          -4.58503504668090     -0.04648343792117     -0.51036618461617
  C           4.29067179718655     -0.60406876278265      0.17051383000738
  C          -4.13528851551362     -1.27636195196353     -0.05853942766553
  C           2.93994498713649     -3.33032351246899      0.51292253120236
  C          -0.98823543322278     -2.98353393507772      0.63394748463988
  H           6.09418390148973     -0.98214240803804      0.68968335529122
  H          -5.87917796236296     -2.03899796248461      0.08876832815597
  H           0.80178371310122      3.42701172220795      1.11102332702997
  H          -0.96828000614929      3.90519104215431     -0.29084288703359
  H           1.29247104011715      2.91253594826308     -1.10451688382149
  H          -1.73734170154802      2.44961458715866     -1.81731023113710
  H          -0.25428706976991      1.93732012131062      2.76852984865918
  H          -0.28210942807359      0.60727751604817      1.61864604282582
  H           1.25868019239269      1.24227460880733      2.19008095995767
  H          -1.93946615562049      3.82667648082811      1.98370713904736
  H          -3.13861092734302      3.44127128400395      0.75075054419444
  H          -2.44831370464176      2.15245746198291      1.72454831888584
  H           1.11829476175941     -0.67117042268386     -0.97950944781700
  H          -0.81336739946696     -0.61739041171107     -0.12509067041155
  H           3.44659060732165      2.67533534834497      0.32070893706453
  H          -4.06856379688252      1.92143697730623     -1.18184605866636
  H           5.33934492918650      1.16576895903012      0.76460487222784
  H          -5.65105825981180      0.11024260632966     -0.63769196039066
  H           3.90011620995211     -3.30902416366718      1.03008627622486
  H           2.14112548867530     -3.06504614791820      1.21331455688845
  H           2.75858310464534     -4.32802384654362      0.11776261232880
  H          -0.52311698996511     -2.31822646231883      1.36810693768342
  H          -0.90708802467894     -4.01238719511296      0.97660569844075
  H          -0.46886509843507     -2.87662534857296     -0.32277117086746
