98
Coordinates from ORCA-job 13878127 E -1893.761864360577
  O           4.50848252900521      0.33389218577381     -0.23662627372913
  O          -5.62919344834278      2.08870683784821      2.31913753299595
  O          -4.65076207869753      0.20982610632010      2.93188124789783
  O           5.56758310118444     -1.69646399961161     -0.38342352638993
  O           6.68691192837931      1.43328480210631      1.16575627037227
  O           8.45468317131968     -0.46380530796765      2.31590998887593
  O           7.04312730137695     -2.77678082957857      1.94358202052367
  C          -1.33709209451721      1.17332593148764     -0.09488071253937
  C          -0.34206738362503     -0.01499831220083     -0.24408464391721
  C           1.19982722178907      0.28699579851714     -0.19604318260279
  C          -2.76367650269282      0.66123158701162     -0.59117501242824
  C           1.46516229159491      1.47655627813365     -1.15713867069185
  C          -0.86372920256449      2.36914167835474     -0.94242151415065
  C           0.61739722509353      2.68920619161657     -0.77234139331693
  C           2.96406277853568      1.82014257802479     -1.44548476073296
  C          -3.15794168533644     -0.58016509277673      0.21373836447620
  C          -0.75635597779488     -1.15252771568036      0.69153161807922
  C          -4.61977281632922     -0.95959120206543      0.39634383245636
  C           1.93552857068710     -0.97826864124052     -0.75031288304063
  C          -3.80988401440530      1.79247356173116     -0.42455958122255
  C          -5.51623561652453      0.27021209542518      0.66238284323733
  C          -1.43612152477970      1.63392806381374      1.37582434943423
  C           3.82972453551449      0.52794242404411     -1.49137977145464
  C          -5.25847504831240      1.31194691659560     -0.43564880252529
  C           1.73832953006583      0.56514787430814      1.21992354935221
  C          -2.23231080587781     -1.37525066686011      0.74243882070217
  C           2.97865711448585     -0.68386051526759     -1.83325512078790
  C          -2.76400039706749      0.27190480240592     -2.09051961721532
  C          -5.14541481358007     -1.82136479269427     -0.76709980276049
  C          -7.01037638894145     -0.13897064120368      0.73588815236157
  C          -6.61206835258857     -2.26116199118307     -0.62964259465238
  C           3.03147684902800      2.43276661559224     -2.85745112883706
  C           3.55873172450207      2.84494282897842     -0.46971057190859
  C          -7.46914300469276     -0.99971549461492     -0.43723437045743
  C          -5.19099209597208      0.82726139054184      2.05905272250447
  C          -7.04235248100254     -2.96966737062130     -1.91769357670482
  C          -6.78964014513859     -3.23263916785540      0.54524848029514
  C           5.73788214954936     -0.29335809961183     -0.27573818321910
  C           6.45492036115714      0.03687665207186      1.02880534768379
  C           7.80844514700175     -0.64790456322245      1.06240843040025
  C           6.80412662725108     -2.39654130341802     -0.40764286630445
  C           7.65477941682128     -2.14966792198818      0.83093257434026
  H          -6.03298204779177      2.47231075949080      1.53021258526455
  H           5.83087056781457      1.87618238307780      1.11934926113430
  H           8.34421309750663      0.46269682523243      2.56394796041369
  H           7.45065381222272     -2.39692034277387      2.73363122118211
  H          -0.48203318294877     -0.38118040005443     -1.26308111150207
  H           1.06686287128338      1.14200147094564     -2.12270662547043
  H          -1.02322218161382      2.17024140694231     -2.00282404083074
  H          -1.46358220451592      3.24864902236122     -0.69769759165983
  H           0.83027248172668      3.00637472169304      0.24953384152473
  H           0.86233400273930      3.54180760437186     -1.40943360812671
  H          -0.25564576708275     -2.08146349457343      0.40428819556831
  H          -0.41967740001680     -0.95309125680418      1.71379348957197
  H          -4.65933555558495     -1.57232819366173      1.29570713583177
  H           2.42651410853049     -1.50191817428095      0.06995306083074
  H           1.21219401131014     -1.67915462096300     -1.17027430485735
  H          -3.64049877190082      2.32146789256059      0.51123559186096
  H          -3.66541121760603      2.52498743706421     -1.22107308011739
  H          -1.99625858563760      0.93262301544693      1.99047749855497
  H          -0.45347692716495      1.74721962173815      1.82070511079402
  H          -1.92469454313505      2.60483388731478      1.45304339248286
  H           4.60877649723295      0.66723754582783     -2.24945563082885
  H          -5.93367794757416      2.17111082305458     -0.33694640382540
  H          -5.51561782096806      0.87465380561885     -1.40041981857535
  H           1.38579208665559     -0.18500293605183      1.92648425427448
  H           2.82268595823142      0.51339781361211      1.22070214233337
  H           1.44972655502534      1.54014321038286      1.60516807309838
  H          -2.55992873624186     -2.23826377105861      1.31560459264812
  H           3.61700816347258     -1.55526500548026     -1.97351224288001
  H           2.48877323647162     -0.49005299441846     -2.79141619868659
  H          -2.16893347287709     -0.61753306127800     -2.28445739997823
  H          -3.77557978830009      0.05116164029840     -2.42366792880774
  H          -2.39747909867531      1.08127650066896     -2.72067940460824
  H          -5.04308329767677     -1.29028406740718     -1.71422151522927
  H          -4.50149105873986     -2.70084337911363     -0.84591263731705
  H          -7.17424106467096     -0.68198160919714      1.66911492302487
  H          -7.62856898922982      0.76158815155626      0.79480827947190
  H           2.35961221837213      3.28697231917521     -2.94818451571334
  H           4.04280525612036      2.77925614304191     -3.08125480037993
  H           2.74719815605822      1.70483854630423     -3.62031777656386
  H           3.46984001370389      2.53292127444937      0.56771789465276
  H           4.61671411779907      3.00249986392907     -0.69085093010594
  H           3.05716577437965      3.80682816394971     -0.57606306073597
  H          -8.51512109449842     -1.28190092529859     -0.28527615912500
  H          -7.44144672432931     -0.41355508208793     -1.36089090054010
  H          -8.08697052209016     -3.28580340759480     -1.86075415159263
  H          -6.93685360278118     -2.31041010554691     -2.78277682371115
  H          -6.43266517225118     -3.85845945133535     -2.09659009195082
  H          -6.49068931412775     -2.80063700423819      1.49958949923436
  H          -7.83400177265442     -3.54174662306497      0.63303602869317
  H          -6.18753979347974     -4.13053542124660      0.38899350038726
  H           6.32648972553236      0.06919881457854     -1.13797090862652
  H           5.83420842127669     -0.34067709951034      1.84753083835771
  H           8.42713308989696     -0.22666709378218      0.25844842449452
  H           6.55369164306348     -3.45370597883442     -0.47377481633261
  H           7.38239611715050     -2.11482652565062     -1.29927800336197
  H           8.65065097702958     -2.57898221042033      0.65286410195608
