39
Coordinates from ORCA-job 13889654 E -585.866269550664
  C          -0.80577753046205     -0.68916972950023     -0.29926214333806
  C          -1.64209971374743     -1.28016216460172      0.89074614382260
  C          -1.24577625436780      0.70667173694084      0.28649698264833
  C          -1.32167198799061      0.01760381840244      1.67623335073799
  C          -3.14085590302414     -1.29115389433798      0.56496739692341
  C           0.69250001023326     -0.97054802449687     -0.10184418870171
  C          -2.66785763140915      1.02121498693187     -0.13320997314175
  C          -1.20930688083870     -1.05284272074065     -1.72152343019728
  C          -3.57072823204219      0.05430596704119      0.03303557398139
  C           1.64102189667074     -0.09765945745989     -0.93980920314355
  C          -2.96562356193589      2.37377109863667     -0.69537520614720
  C           3.08078851233575     -0.41612221050356     -0.66615889833998
  C           3.93879188387507      0.26775596402982      0.09376173972284
  C           5.35304678432413     -0.20549138310298      0.28797894718494
  C           3.60205838277014      1.53919438325250      0.82158204213647
  H          -1.30916893137709     -2.23439684583729      1.30452843699702
  H          -0.57552451979701      1.55620950738714      0.15446017001197
  H          -2.08808470519073      0.38840982783771      2.35620904007360
  H          -0.36650030398018     -0.02049550294771      2.19281188726754
  H          -3.36950124556015     -2.07638651981250     -0.16539890285336
  H          -3.71153338452157     -1.54634392667456      1.46542879679233
  H           0.97371349399670     -0.85337697282079      0.94486377413929
  H           0.87261998768584     -2.02455690599091     -0.34155708361753
  H          -2.27311693902865     -0.92081015307755     -1.90092146165519
  H          -0.67934923268779     -0.43555836469513     -2.44943430815012
  H          -0.95488259514978     -2.09619035595367     -1.92827153310053
  H          -4.61231306750839      0.20427401782939     -0.23092913514011
  H           1.44331200280950     -0.25606485822668     -2.00300061702243
  H           1.43068490520088      0.95450083473761     -0.74330294773654
  H          -2.69374266351774      3.16281285950484      0.01351641235136
  H          -2.37813566455541      2.55390367457925     -1.60203243271499
  H          -4.02188096228395      2.48369031923511     -0.94413140885556
  H           3.44260848542205     -1.33494243190154     -1.12246918568821
  H           5.56495602328913     -0.38219617937392      1.34770015008175
  H           5.54852404304275     -1.12854382077377     -0.25814426417820
  H           6.06881456322771      0.55106700427773     -0.05043167282139
  H           3.77586298250257      1.41929145305815      1.89575682604217
  H           4.25180879067436      2.35644434620710      0.49204220947146
  H           2.56914416291579      1.85153762294053      0.68334211615722
