54
Coordinates from ORCA-job 13892722 E -1490.797972321320
  O           2.16665758182615      3.16440091423864     -0.58196150191812
  O           0.58404520569553     -0.87188527646870      1.61750265468656
  O          -0.92923282456630      0.67969135470728      0.97082703989092
  O           4.14484987955175      0.54995862568537     -1.78801967540743
  O          -2.29117049039268     -0.10890903479941     -0.67230956872616
  O          -3.10567838410558      0.51030424772483      2.84391921773587
  O           5.19605730101793     -0.77355638356512      0.60485527440272
  O          -5.67281043459917      0.46250087225099      1.58159811720253
  O          -5.77768815163442     -1.13941816810944     -0.75511482700014
  O           4.42728325413961     -2.32625491263303      2.04030036393849
  O          -2.37174485437748     -1.59295591857803     -3.15725075727400
  C           1.35748955774474      1.15367372734347      0.46235885584494
  C           1.24093886561480      2.08060170795330     -0.78057561809857
  C           2.73105206256931      0.48541024805761      0.24964913299203
  C           2.84807672210882      0.27036647127032     -1.28863505469817
  C           1.82800886534574      1.23240052867586     -1.91588515190944
  C           0.27783200819970      0.09630025057849      0.58521369456384
  C           2.90199334629419     -0.74117141310479      1.09471838960914
  C          -0.13342575908774      2.64600363909199     -1.09990054365369
  C           1.85131145899056     -1.29322471412587      1.72152710601641
  C          -2.06855732662380     -0.09662196563669      0.72032660943851
  C          -3.24032531808975      0.56152499477114      1.43272754353784
  C          -4.51365356228237     -0.18441214291812      1.07485297833158
  C           4.20602598677986     -1.37954098874804      1.32158577800000
  C          -4.68258912440400     -0.29842925712367     -0.43303629430943
  C          -3.41803032507045     -0.89238146191494     -1.05748083842924
  C          -3.47057412431889     -0.90791417039466     -2.57440067709719
  C           6.51210919116324     -1.32173548737499      0.78115737978181
  H           1.78937430953866      3.76611665403325      0.07036682685877
  H           4.77245830513687      0.09489791837599     -1.21134573845300
  H          -2.27442384342708      0.93769893461589      3.08267533359810
  H          -5.56392718075788      0.55981132694686      2.53539269049164
  H          -6.52970150720941     -0.84477080468351     -0.22602720937358
  H          -2.50661194651439     -2.54086043154605     -3.05265451993187
  H           1.33435208383823      1.74300409023188      1.38270542827459
  H           3.49256189288601      1.22100767303249      0.50860079589603
  H           2.58456651133535     -0.76834941436961     -1.52479483011619
  H           1.02933399664394      0.68078965853098     -2.41275633256864
  H           2.31111185394983      1.87000065648307     -2.65407533144511
  H           0.14882604106621     -0.46658129839789     -0.34341317298754
  H          -0.52497242763754      3.22212316716087     -0.25772800261981
  H          -0.04340439740208      3.30939734748797     -1.96164542000755
  H          -0.85543853335664      1.86534571718183     -1.32966604327726
  H           1.95635091014456     -2.13824681776611      2.38842042247003
  H          -1.92198103392526     -1.12148516361957      1.08958725699473
  H          -3.30844608050734      1.59773923572047      1.08048421994315
  H          -4.44317468458004     -1.19964661006601      1.48920916794485
  H          -4.83742304081447      0.70905282843346     -0.84230327784004
  H          -3.29853794935961     -1.92192273008563     -0.68774370212511
  H          -3.41519821235379      0.12003648249646     -2.93668335288743
  H          -4.42771497321247     -1.33333049261337     -2.88689382939284
  H           6.80905429678953     -1.26341723774982      1.82715137364297
  H           6.53684157330490     -2.36271672006397      0.46154336617359
  H           7.16754842893461     -0.71395425662374      0.16293925328592
