52
Coordinates from ORCA-job 13966147 E -930.510298318607
  O           3.75465165182697      2.88916422008810     -0.48778617121560
  O          -3.22103169765607      2.43877238729090      0.23442005056541
  C           1.87199296329410     -0.88791992536305     -0.22828384009129
  C           1.14488313208068      0.28389858418385      0.49920664504781
  C           3.42840437116707     -0.86081885077495     -0.22864534348129
  C           1.73218327408114      1.60824872192545     -0.02975684324266
  C           3.90127758409697      0.53610729673266     -0.67163583992432
  C           1.25540698691543     -2.22287967903183      0.18787912371243
  C           3.25000047570535      1.67678845961726      0.08279999339741
  C          -0.35481637899173      0.18641087138193      0.18295639148833
  C          -0.17636194469547     -2.30931494192425     -0.32922361194211
  C           1.25539919335746      0.26004716394271      2.04124380641703
  C           4.06812784716187     -1.25081745956248      1.11385533343690
  C           3.94013215128225     -1.85888755201609     -1.28287186229521
  C          -0.96177473194816     -1.03024928448869     -0.15035326397962
  C          -1.16388973065614      1.31678422004987      0.29411079442331
  C          -2.34008545981361     -1.06166004101985     -0.36347831947313
  C          -3.15886113743735      0.05531983520260     -0.25675184634198
  C          -2.53188051261608      1.26194102235923      0.08233761230785
  C          -4.66366687938265     -0.00932335314404     -0.43824431758056
  C          -5.37400458131486     -0.05315477448169      0.92551070024122
  C          -5.13339942681686     -1.16365609962470     -1.32445558533553
  H           3.32825141582117      3.63341737745845     -0.04864911152508
  H          -4.14064518488893      2.31272075895949     -0.02183772572105
  H           1.60717275207544     -0.74532843209505     -1.28472485776738
  H           1.46502550062234      1.73224728477678     -1.08305203391519
  H           1.30216531607226      2.45521335752720      0.51169063205166
  H           4.98758006769786      0.60895943574658     -0.57555564915270
  H           3.66846474492563      0.67458852157426     -1.73246723534227
  H           1.82885672034547     -3.06002540593935     -0.20966402684279
  H           1.27208809445556     -2.32782139626775      1.27397342854326
  H           3.54446539600713      1.63640138217538      1.13790479595482
  H          -0.14602008742367     -2.55123922898814     -1.39848330049250
  H          -0.70803655885532     -3.13573959850937      0.15028333987064
  H           0.88029846747665     -0.67351957537534      2.45793580554019
  H           2.27245077739507      0.40382408516460      2.39582659309387
  H           0.64319871232317      1.06354402521351      2.45326518953494
  H           3.92355807811615     -0.50499331406214      1.89130834249419
  H           3.67075573908954     -2.19766771043909      1.48278548664284
  H           5.14525014881420     -1.37578789417135      0.98175347977247
  H           3.76928336911340     -2.89445125071141     -0.98667187876183
  H           3.45529570255601     -1.69589439765011     -2.24798547790185
  H           5.01596730898488     -1.73363023745357     -1.42318254488083
  H          -0.74708286794337      2.27891728490291      0.55580659616311
  H          -2.78617088691060     -2.01317944233622     -0.62585487871911
  H          -4.98034259907319      0.90998450604885     -0.95212968222816
  H          -5.07431728498575      0.77845257156651      1.56533194412546
  H          -6.45903260436776     -0.01895297627971      0.80302929788695
  H          -5.11789441536310     -0.97757291779429      1.44724794796415
  H          -4.95582649633964     -2.12926257874245     -0.84719997739654
  H          -6.20665918020884     -1.08329353523934     -1.50562547886452
  H          -4.62180529517211     -1.16171752040277     -2.28792162626112
