31
Coordinates from ORCA-job 13965751 E -692.489340701739
  O           0.62002564088365     -1.45197957070236      0.58749142564614
  O          -1.74883247491012      2.08050334160131      1.52835703508207
  O          -0.85233747101432     -3.10147371275855      0.12689124183255
  C           0.61485670640463     -0.00675328223035      0.61435110435720
  C          -0.77600523877288      0.35085566176184      0.20273359784392
  C           1.71068010691104      0.53646300297233     -0.29447500688656
  C          -1.42290434699604      1.70054630538379      0.18431795816558
  C          -1.48049309582123     -0.76331687238970     -0.03075261059422
  C           3.11572185786707      0.14079673539059      0.15047226729661
  C          -2.64926379093562      1.68620528813061     -0.74306812415251
  C          -0.60794983380577     -1.93110938792054      0.21288868377001
  C          -2.87893190208676     -0.76054207056232     -0.40974204008880
  C          -3.44754025250456      0.41044635520856     -0.71904031387692
  C           4.20382603403617      0.67672565843431     -0.77693921932209
  C           5.60969868104077      0.28692315330086     -0.32864790388719
  H          -2.32116464130690      1.39818741141660      1.90194252901431
  H           0.80840930333480      0.29744970700642      1.64893948817847
  H           1.52000473718387      0.18211232825222     -1.31201453982814
  H           1.62096960297882      1.62753945733454     -0.31305897951409
  H          -0.73231849864607      2.47461431710470     -0.15072451941867
  H           3.28951498832672      0.51083987253425      1.16729110343707
  H           3.18107499925528     -0.94887460426570      0.20288985305373
  H          -3.27219468815737      2.54854506761680     -0.49655872674643
  H          -2.30021190925275      1.84474691416490     -1.77282827000103
  H          -3.41970721953063     -1.69704740833399     -0.43653254767058
  H          -4.48828368564944      0.45733721492979     -1.01495454547043
  H           4.02630601221023      0.30405797078772     -1.79116853308533
  H           4.12643913202007      1.76788329887704     -0.83499088851053
  H           5.82546924605738      0.67535125209784      0.66978948541564
  H           5.72207201901971     -0.79925593364948     -0.29169591982050
  H           6.36817598186023      0.67798352850592     -1.00932608421925
