32
Coordinates from ORCA-job 139728 E -656.340936785006
  O           5.17120520565526     -0.28445910609499     -0.33895047463396
  C          -0.40503076806663     -0.07340306384120      0.70398461571228
  C          -1.21010569852335      0.01137413721049     -0.61000672457622
  C           1.08054343145720     -0.10320516148583      0.46780401620217
  C          -2.69502585860910      0.03632267972461     -0.36890898592267
  C           1.74764555024829     -1.30693316940020      0.22435637872885
  C           1.83050169416603      1.06610515364331      0.43456098327469
  C          -3.42549638325279     -1.14882601692835     -0.28523722997163
  C          -3.36737252957864      1.24250071180817     -0.17359969089602
  C           3.10438549531964     -1.34068549132886     -0.04116213979969
  C           3.19762517219866      1.05571251475745      0.16909956757657
  C           3.84101017087223     -0.15535451349551     -0.07202030000763
  C          -4.78797296199182     -1.13184242227723     -0.01387497586086
  C          -4.72972302018090      1.26637839934825      0.09808652645301
  C          -5.44523994009585      0.07752554237077      0.17988099488982
  C           5.96195292537184      0.88958306958688     -0.37850776174477
  H          -0.66823177064291      0.78116676839227      1.33206875632453
  H          -0.71720330960502     -0.96842381442313      1.24813139658808
  H          -0.90218115214924      0.90886281818553     -1.15191078762997
  H          -0.94635137373769     -0.84213296870098     -1.23925350646874
  H           1.19170252318135     -2.23732264205959      0.24849076768633
  H           1.34319913287584      2.01582267218794      0.62406090978528
  H          -2.92024730443687     -2.09553060606324     -0.43942570013278
  H          -2.81645129767092      2.17383176989797     -0.24015761727906
  H           3.61797679720783     -2.27545646488139     -0.22335797348637
  H           3.74233398514384      1.98813488097375      0.15834405144304
  H          -5.33779792092127     -2.06302237990362      0.04242333798218
  H          -5.23393716598637      2.21381285724855      0.24207510345177
  H          -6.50731605925958      0.09357657502135      0.38841931542526
  H           5.95559786516561      1.40857235494951      0.58501526790730
  H           6.97437373596088      0.56317493263386     -0.60503755537488
  H           5.61974682988446      1.57623898294345     -1.15904756564588
