79
Coordinates from ORCA-job 14015437 E -1396.285270128487
  O          -6.99043622367004      0.18886168862002     -1.93314601489987
  O           7.19375907290825      0.32961101417093     -1.92687874745282
  O          -8.20701875564980      1.71100676729062      1.20705734204581
  C          -0.62099601898547     -0.86337604695226      0.47091852682766
  C          -0.01402561049411      0.55437930999273      0.22061512385209
  C          -2.13991620429890     -0.58414827006549      0.32626957751716
  C          -0.89886552890049      1.44828891185561      1.09886927175464
  C          -2.30683080041651      0.81441683382050      0.99082872425004
  C           1.47240503317908      0.54043329284765      0.48453983699296
  C           3.72505455924852     -0.65535740647678      0.13478710604127
  C           0.02601764680323     -1.82467845511815     -0.52863449643810
  C           2.19912466878065     -0.62517724280911     -0.04344252600019
  C           4.24493245303358      0.80867019081732      0.02901563276827
  C          -3.13796706200620     -1.62146504905874      0.86737536534310
  C          -0.30809634135533     -1.34387761924082      1.89988620738716
  C          -0.18113286584017      1.02430663355696     -1.24712613759561
  C           1.52339509635386     -1.67374625304163     -0.53926191779109
  C           5.78631054129104      1.03820066277678     -0.10574044128228
  C           3.60212589776197      1.67188071149987      1.11595712169796
  C           2.11197798997478      1.56225270657058      1.06432102823536
  C           4.39515868020364     -1.49775050233805     -0.96122216692093
  C          -4.59295049767656     -1.13311810601642      0.72297944090933
  C           3.97316632759322     -1.30481141867195      1.51378510351402
  C           5.92235936247314     -1.41161293974356     -0.92766502325221
  C          -2.97121619328774     -3.00622776327847      0.23517059930743
  C           6.38589814726816      0.01606058635153     -1.08185761786539
  C          -5.07759582349244     -0.92245725019847     -0.71446385086082
  C          -6.50002993664803     -0.43697020379431     -0.73378338951809
  C           6.57546722174553      0.89701709896182      1.21482493580080
  C           6.04110152056512      2.44824081732375     -0.65488658836463
  C          -6.90278395018617      0.97479808870861     -0.72932656620829
  C          -8.26414140491853      1.32662930154280     -0.16364160514659
  C          -5.90497542113993      2.10349045229410     -0.74412059826888
  H          -7.90188314848805      2.62180709487743      1.26500320770780
  H          -2.33959914138204     -0.48860138416332     -0.74306834676870
  H          -0.54924958172587      1.43897555463919      2.13119344677939
  H          -0.88754350731828      2.48749056927875      0.76836526460796
  H          -2.98523016885668      1.44178250306900      0.41275414326416
  H          -2.75420143928946      0.71183497156284      1.98085857635778
  H          -0.20819542136132     -2.86257175666671     -0.28455017720587
  H          -0.38164386129617     -1.66448009248516     -1.53366249610077
  H           3.83413539886846      1.16925322632585     -0.92162686933155
  H          -2.96296578741593     -1.72349080498217      1.94326663187425
  H          -0.76855515684531     -0.71043374406909      2.65694890636789
  H          -0.68530707973440     -2.35630475009334      2.04851816004934
  H           0.76311637246948     -1.36160054105492      2.08930556237444
  H           0.21461966798189      2.03732383218528     -1.32970921009753
  H           0.37173651076384      0.39890977712058     -1.94559838831341
  H          -1.22481112852111      1.04939800499884     -1.55921233147327
  H           2.07050909993634     -2.52228862987774     -0.92906084058200
  H           3.97720454791531      1.39048043946939      2.10609976557585
  H           3.88107699067032      2.71869683971946      0.98358722053082
  H           1.53952811395092      2.39088441411519      1.46457328952909
  H           4.10399588495912     -2.54473395098114     -0.86891922346486
  H           4.03918823270990     -1.15700542886181     -1.93767693184698
  H          -5.24617927693624     -1.86324810601185      1.21156320417020
  H          -4.72316056589533     -0.20053867263473      1.27610276716283
  H           3.48240909952621     -0.74866405249752      2.31162660763457
  H           3.55313162799599     -2.31140762913093      1.51231968224078
  H           5.02888388086188     -1.38319547289198      1.76335962280096
  H           6.29883112670190     -1.80376923488117      0.02122154997567
  H           6.37077877461417     -2.00043169766455     -1.72710952409702
  H          -2.04474200057210     -3.48458621465038      0.54832831757605
  H          -3.79317444291339     -3.66359375972333      0.52814242224147
  H          -2.96035309379257     -2.95300767435012     -0.85537313426722
  H          -4.44218191123864     -0.21111197466213     -1.24081860356647
  H          -5.02535788427792     -1.85874548448769     -1.27658970129392
  H          -7.21212607377399     -1.13605600730872     -0.29537165898632
  H           6.21116026098868      1.61024560778227      1.95413909058563
  H           6.51385239228474     -0.09679478025792      1.65097568592415
  H           7.62837085729891      1.11751654550933      1.03195306869976
  H           5.73336025880322      3.20812768425711      0.06310567750167
  H           7.09987595860601      2.58530211995499     -0.86560553128988
  H           5.49701682779403      2.61164410473065     -1.58621347791062
  H          -8.91092614641780      0.45127818013106     -0.21566286314187
  H          -8.71836075077556      2.11534730195125     -0.77621801670828
  H          -5.65949683601388      2.41310949634354      0.27405929041978
  H          -4.98327119092952      1.81787304980386     -1.24468055108618
  H          -6.32136587014703      2.96380498436459     -1.27515254079882
