34
Coordinates from ORCA-job 14038452 E -619.689884119557
  O           0.75144606665814     -0.87907433137806     -0.28847558495131
  O           0.03535466689961     -2.74205584724128      0.77259146739948
  C          -1.03542548816310      0.68606494978079      0.22005907108986
  C           1.66971917502554      1.95148626918407     -0.00410702392314
  C           0.22984872712995     -0.01517477232694      0.75357567016725
  C           1.32321347741358      0.97626165039428      1.12384292604988
  C          -0.67159735113715      1.63357678929725     -0.92651382629803
  C           0.39755410178415      2.64068366113164     -0.50422146883170
  C          -2.13244311979978     -0.31194519038964     -0.08587114292651
  C           2.72508370940082      2.95871543016689      0.44220276542050
  C          -2.80608461561557     -0.92260309445445      1.11113621219820
  C          -2.47898013631065     -0.65057370164668     -1.32527210402797
  C           0.53819875729217     -2.20609090732310     -0.18229313539744
  C           1.00762437891314     -2.91835304095410     -1.42095283735211
  H          -1.38979039720291      1.30111276950953      1.05812585513019
  H           2.08054973346055      1.36655193941694     -0.83429050975132
  H          -0.01469244406073     -0.64146626707003      1.60809700533201
  H           2.21159940693498      0.42322673918059      1.43910231454053
  H           0.97706393839185      1.54258834239633      1.99586030438567
  H          -0.29896079066113      1.05446048699245     -1.77447417310542
  H          -1.57110215745051      2.15100678884457     -1.26600123818939
  H           0.00315314086750      3.28285007373176      0.29337010961635
  H           0.63960496701434      3.30058767636255     -1.34187442624789
  H           2.35613692906676      3.56566549788490      1.27405437642523
  H           3.63718354806088      2.45779171288329      0.77464239344070
  H           2.99205546481745      3.63684622264927     -0.37132775514146
  H          -2.09349454826666     -1.49075453399134      1.71333595303660
  H          -3.23419591140370     -0.14637351262190      1.75294291852837
  H          -3.60478515763114     -1.60094345634483      0.81253542345764
  H          -3.26257127814360     -1.37644495829592     -1.50484142498334
  H          -2.00661191048761     -0.22213122192484     -2.19830253719401
  H           1.05205417042336     -3.98773279669589     -1.23316109331641
  H           0.29580820964542     -2.72235062036306     -2.22544759925050
  H           1.97972773713406     -2.54277074678506     -1.73895488533052
