73
Coordinates from ORCA-job 14034832 E -2250.327346247320
  O          -2.52891046324681     -0.93992404747399      0.85325542556897
  O           0.84429834707505     -2.22480545710262      1.06316137629643
  O          -3.53470602645860     -1.18871659330637     -1.25172783495822
  O           0.07874873141775     -0.57155254514455     -0.29727220479521
  O          -2.91084755064594     -3.87728371592446      1.37195643115342
  O          -0.32543745591980     -4.74712663690061      0.71563286885890
  O          -5.90677673424898     -0.05655773263115      0.10518138499207
  O          -4.72125407651795      2.56203580283334      0.13347138027885
  O          -5.04672471054607      1.10834416579579     -2.33050378530747
  O           3.01390159783119     -3.00002434856088      2.85888053401075
  O           2.71623523835253      1.87858791853160     -0.00424825041554
  O           2.17803143816297     -1.85286174490235     -1.54699264737158
  O           4.85501181265260     -1.92968020668459     -1.96515864798395
  O           7.29418817092379      2.03530400173119     -0.85261544972496
  O          -2.32283494868943      4.09692828008382     -0.72799709844444
  O          -2.90477507631159      4.18476123959469      1.95252795907060
  C          -1.55793333969314     -1.96409139764354      0.69929499274920
  C          -1.78558704260767     -3.08979528777930      1.72012566964848
  C          -0.54126491415807     -3.96461946042698      1.88750458004581
  C          -3.74295139151519     -1.08342154283149      0.12638624736444
  C          -0.19542099835539     -1.29191410964641      0.87715874600186
  C          -4.56090331342131      0.15209828637548      0.51516815701979
  C           0.65871637403525     -3.07307871192896      2.18663715937766
  C          -3.94793896695438      1.38386088020324     -0.14204552364543
  C          -3.80666144484688      1.19534246983719     -1.65253725770445
  C          -2.92280224261087     -0.03723912752081     -1.87572918568009
  C           1.95411928543545     -3.83400394299820      2.41780937516127
  C          -2.72229594277387     -0.38180851607469     -3.33344835981341
  C           1.32928676259862     -0.00180416637822     -0.36686731639907
  C           1.50926241464890      1.25990863145280      0.06025640210853
  C           2.39730995839005     -0.77412085320840     -1.02702315559540
  C           3.70185348942385     -0.09000900226232     -1.00277395993312
  C           0.43006732635652      2.11172418359056      0.60091787476185
  C           3.80405217418148      1.21202277319543     -0.48859541376295
  C           4.90118108579020     -0.67332700319724     -1.47530405674253
  C           4.99021323602379      1.92878408339690     -0.43681220375366
  C          -0.42045504666073      2.76772545057560     -0.28460084031796
  C           0.20371755719280      2.20616851530042      1.96936809773377
  C           6.09805530173105      0.02687891049570     -1.42738792590057
  C           6.13886352055911      1.32302224617808     -0.91150204388864
  C          -1.51127014873810      3.48984801817432      0.17492020859571
  C          -0.89293765027453      2.91746163981516      2.43962390695245
  C          -1.75529593316450      3.54291322884685      1.55285475061721
  H          -2.61238260061662     -4.50010468666028      0.69362844276754
  H           0.14931239752574     -4.19608408281645      0.07516009894778
  H          -6.33812102712916      0.80880652088437      0.12327588660778
  H          -4.54318394553741      2.83408366863991      1.04353174186601
  H          -5.52684037286352      0.35637071095481     -1.95581336968657
  H           2.81483487867566     -2.68633954350757      3.74759564020983
  H           5.74296519884707     -2.20418738547236     -2.22346266616378
  H           8.02166016301378      1.51462090427056     -1.21151548130925
  H          -3.24205882134173      4.08633259994012     -0.41460922050546
  H          -2.89519822025179      4.30171236106176      2.90916295064605
  H          -1.59493857949611     -2.37134356913691     -0.31419283052159
  H          -2.02475367317523     -2.62739259643337      2.68196363271431
  H          -0.71641094312296     -4.67290070550512      2.70009788283718
  H          -4.26190790438053     -1.99778736296096      0.41239996588432
  H          -0.22549251907372     -0.60667026342550      1.73801492950840
  H          -4.51149535917983      0.25134909703282      1.60655040318977
  H           0.43581352858096     -2.46969854855797      3.08200785456904
  H          -2.94315504768821      1.49319279362051      0.26539383106412
  H          -3.29898725247349      2.06880431991703     -2.06452267914398
  H          -1.95424289913837      0.14180242103405     -1.40218474936316
  H           2.28683208270748     -4.27466881620176      1.47962220341041
  H           1.76174745621284     -4.64794556074361      3.12716256721471
  H          -2.23434109365902      0.44826655818699     -3.84752265227700
  H          -2.08920581614440     -1.26440228571386     -3.42460148402837
  H          -3.67844588611580     -0.57304542719639     -3.81835063589497
  H           5.00955146843247      2.93100066333696     -0.03632653862290
  H          -0.26890574686355      2.69392457890332     -1.35285926153598
  H           0.86353065446986      1.70571599025357      2.66476811013617
  H           7.00680681438810     -0.44039489857093     -1.79316529888307
  H          -1.09282133902567      2.96870796938628      3.50417336013322
