42
Coordinates from ORCA-job 140334 E -550.223779413423
  C          -0.46187733689001     -0.42054902496832      0.27195025580578
  C          -1.70636566696458      0.31641816610571     -0.21651698699599
  C           0.84537012513285      0.24087458682626     -0.15730084499929
  C          -3.01367945337694     -0.34581251035576      0.21108844632312
  C           2.08941295784851     -0.49588417412050      0.33245520386417
  C          -4.25831443841628      0.39097695505412     -0.27733187428627
  C           3.39528517522839      0.16364289762211     -0.10281955388081
  C          -5.56562607244051     -0.27142410599799      0.14969281510607
  C           4.63594200514200     -0.58687095539097      0.39876246627026
  C          -6.81137917305127      0.46463302977556     -0.33858838922090
  C           5.94148516600527      0.01282098522437     -0.05518421819712
  C          -8.11245142559262     -0.20649015959604      0.09370452246567
  C           6.27422850075643      1.37990201575282      0.47425787558359
  C           6.75670526194850     -0.63639807193462     -0.88303879299689
  H          -0.48937006869819     -0.49126133722285      1.36536722319781
  H          -0.48368890519724     -1.45182293535242     -0.09849103034922
  H          -1.68505210163056      1.34743500455176      0.15481055082082
  H          -1.67810603616753      0.38815824860007     -1.30983314254073
  H           0.87349906599650      0.31040775258018     -1.25067402209651
  H           0.86690845585697      1.27254156296455      0.21210086431723
  H          -3.03486183062342     -1.37680792819541     -0.16027228661351
  H          -3.04175970218970     -0.41772663570929      1.30441455333190
  H           2.06417920683423     -0.56172668313810      1.42627740809281
  H           2.06603298396553     -1.52856399826547     -0.03365105467754
  H          -4.23721088438795      1.42190874698533      0.09431752769022
  H          -4.22982575434667      0.46309036849103     -1.37065097541213
  H           3.43220564262576      0.21951988305224     -1.19565964892207
  H           3.41235621256726      1.19579740120584      0.25947232960866
  H          -5.58729593197737     -1.30259102940913     -0.22173830740869
  H          -5.59472664737684     -0.34364255482341      1.24316175477454
  H           4.61168243150500     -0.60570646428317      1.49547652064168
  H           4.58159841816811     -1.62647536562246      0.06582661097960
  H          -6.78913472576947      1.49451158097449      0.03338709599785
  H          -6.78127339914813      0.53618689651605     -1.43104462822869
  H          -8.18296561247307     -0.26125806297940      1.18307514080717
  H          -8.98536954574869      0.33988271323174     -0.26914562681556
  H          -8.17462474566075     -1.22737596124962     -0.29181095471980
  H           6.26021021500243      1.38486092517710      1.56875784169943
  H           7.25836875244247      1.70891758398644      0.14124767578210
  H           5.54057607128051      2.12198406714235      0.14820869852419
  H           7.69436582129382     -0.20494825867813     -1.21259945662170
  H           6.51324198852727     -1.62359915452705     -1.25748358670125
