29
Coordinates from ORCA-job 14069 E -354.929609793658
  C           0.00083766281578     -0.00157229461111     -0.12055360381736
  C          -1.26811747754045      0.01144519191817     -0.97360683204192
  C           1.26616705604590     -0.02220398842702     -0.97883283625922
  C          -2.59896072011738      0.03557128161847     -0.20297194372489
  C           2.60026075105213     -0.03862176838466     -0.21365967350775
  C          -2.76479742747367      1.30545277182684      0.63512104597222
  C          -2.79959611654100     -1.21638354396552      0.65427114644733
  C           2.77023618094574     -1.30052611488894      0.63559240963519
  C           2.80396553218579      1.22138285152670      0.63099409162536
  H           0.01393859778958      0.87636867298881      0.52951109553046
  H          -0.00944461222086     -0.87375338844340      0.53727702211522
  H          -1.23594641012946      0.88223121692467     -1.63793880778267
  H          -1.26117892326646     -0.86824444231101     -1.62686217911866
  H           1.23151451205718     -0.89920426915042     -1.63480690806335
  H           1.25615209451140      0.85134490313821     -1.64023958687065
  H          -3.39069694764370      0.04079037889253     -0.96114691009493
  H           3.38880380252910     -0.05059564998115     -0.97507184656741
  H          -2.04524570555000      1.33872038675835      1.45622658974110
  H          -2.62138574177806      2.20281318921522      0.02844789398992
  H          -3.76364396486333      1.35384817370966      1.07436600070477
  H          -2.08135080849965     -1.25667988686416      1.47619153225231
  H          -3.79947408912309     -1.23076740660747      1.09358632607684
  H          -2.68061554279177     -2.12648078800848      0.06144031881493
  H           2.05428671370330     -1.32635495502297      1.46010916586014
  H           2.62456725787394     -2.20359992773399      0.03800813332159
  H           3.77099287576585     -1.34441541102938      1.07094589878268
  H           2.08941942107738      1.26889664982762      1.45574040318752
  H           3.80581770194941      1.24043832367915      1.06561940266252
  H           2.68181332723640      2.12585984340531      0.03025865112871
