38
Coordinates from ORCA-job 14077830 E -1033.409902864911
  O          -0.35498558321405     -0.22123379736223      1.63737993154241
  O           1.79877056205773      1.98327813744754     -0.79926411754941
  O          -2.58971376106345     -1.79080140028223      0.68391948293211
  O          -4.27135037528665     -0.51676965981448     -1.22377787168172
  O           4.70018117821278     -1.58010893904070     -1.72342359306927
  C           0.19222748362449      2.03568722635884      1.05131053521986
  C           0.76451618124868      0.72423109788828      1.63286265403921
  C          -1.00609691127672      1.52324603086088      0.29232292369478
  C           1.22740247127846      2.78371257898890      0.23102858383344
  C           1.87694808707590      0.16248852764045      0.79007501748172
  C          -1.24354129274215      0.22087499616007      0.69874864798219
  C           2.29166551999715      0.78126474811925     -0.39323024530829
  C          -1.85921013927446      2.13202054551820     -0.60879527192709
  C          -2.31111776335209     -0.53375719057701      0.22184944223097
  C           2.45715401113192     -1.05973248174810      1.12299280560175
  C          -2.93536890145960      1.40739732399554     -1.10532699299556
  C          -3.16394430129836      0.08919296751016     -0.70678710509670
  C           3.23335593187379      0.18596842724598     -1.22628658527417
  C           3.39963157380437     -1.66653424709052      0.31263950215290
  C           3.78005606485884     -1.03755202883495     -0.87522462859493
  C          -1.55941088233533     -2.76566105136116      0.50215814163617
  C          -4.16672109042905     -1.86038819056191     -1.69259041910627
  H           5.01260996602688     -2.41852333428606     -1.36524026946891
  H          -0.12805095431747      2.69896429239633      1.86237547741380
  H           1.06428873438046      0.81640725008613      2.67572505434791
  H           2.03106611359574      3.14733922045046      0.88281484642945
  H           0.78084096000297      3.63822639370104     -0.27494205799108
  H          -1.69524636897312      3.15108502644311     -0.93548971924783
  H           2.13998323258012     -1.55535537313955      2.03250187395189
  H          -3.62007829039283      1.83915757175515     -1.82197771864935
  H           3.53787287913029      0.68281180740348     -2.13647916033751
  H           3.83574596486740     -2.61865191378909      0.59155015956292
  H          -0.65366419160500     -2.49025042433236      1.04133984063830
  H          -1.95549705154675     -3.70049274648389      0.89395875314706
  H          -1.32798138649811     -2.88280716024061     -0.56102997773427
  H          -4.27126487480247     -2.57646296763629     -0.87912748027793
  H          -4.97697605913128     -1.99026367150942     -2.40865807032737
  H          -3.21101973674905     -2.02063159187921     -2.19947538920115
