47
Coordinates from ORCA-job 14071 E -740.016029796541
  O          -6.42000046750836      0.48812644726227     -0.01507139521007
  O          -7.78966864519635     -1.29734024136191     -0.02695396420218
  C           2.34855986975563     -0.38507975268568     -0.00121285177191
  C           1.07201412227604      0.45207188329338      0.00165651140477
  C           3.62545305374442      0.45151850076816      0.00719110029446
  C          -0.20461988277070     -0.38490992466262     -0.00665300367773
  C           4.90213900486430     -0.38545470031333      0.00423072437973
  C          -1.48047951831372      0.45299839327505     -0.00391509794953
  C           6.17913552476739      0.45108569669607      0.01259154762124
  C          -2.75630426552183     -0.38558347204249     -0.01222430501075
  C           7.45590026315991     -0.38560378733075      0.00980584336143
  C          -4.02798226579869      0.46053501581506     -0.00946051574931
  C           8.73393375297423      0.45030928395785      0.01770464536046
  C          -5.27694148814264     -0.39387302000436     -0.01805044504438
  C          10.00412894541474     -0.39626043226564      0.01528523898547
  C          -7.63090652713963     -0.10302152011349     -0.02009953585854
  C          -8.73201202692776      0.92319615205880     -0.01585263506440
  H           2.34648181842803     -1.05044884902434      0.86972430595551
  H           2.35027560812767     -1.03867727907862     -0.88101774086450
  H           1.07013796759541      1.10564687371467      0.88147361260385
  H           1.07387379046982      1.11734215768353     -0.86934949818755
  H           3.62738128591486      1.11697447163361     -0.86371967149831
  H           3.62364741656532      1.10510675832687      0.88703802908899
  H          -0.20295373079177     -1.03844920866654     -0.88643452334028
  H          -0.20678949569522     -1.05001981705330      0.86440894067657
  H           4.90014612815909     -1.05089919896914      0.87513079326645
  H           4.90386201214614     -1.03906402585131     -0.87558223904961
  H          -1.48324871181505      1.10615464468984      0.87592148104820
  H          -1.47943374630262      1.11770927998322     -0.87505681362595
  H           6.18103582033971      1.11643436832080     -0.85843092103033
  H           6.17722513999839      1.10479506540489      0.89237918889638
  H          -2.75340217110171     -1.03835202175771     -0.89219851776953
  H          -2.75725663280071     -1.04987523609724      0.85908554031088
  H           7.45482378076969     -1.05097288973447      0.88101129681687
  H           7.45835185674324     -1.03978958182938     -0.86982219368456
  H          -4.04291616149084      1.10738235129442      0.87262353873858
  H          -4.03890192872102      1.11917556895094     -0.88283185456471
  H           8.73435089203648      1.11421988586887     -0.85334035254437
  H           8.73057251684942      1.10354367508621      0.89677686152801
  H          -5.33080390006878     -1.04261935965691      0.85848418176756
  H          -5.32651311921093     -1.03099255464650     -0.90334598015599
  H          10.04440241557242     -1.04639925608197      0.89299823891914
  H          10.04821397890877     -1.03568666613494     -0.87008594643132
  H          10.90107066747812      0.22631978594745      0.02095269576346
  H          -8.64565698434275      1.55723552570662      0.86778888889665
  H          -8.64188351750001      1.56886972625218     -0.89062909615032
  H          -9.69571944589818      0.42168528337186     -0.02116410724852
