32
Coordinates from ORCA-job 14091860 E -618.494392769911
  O          -0.44132388729108      1.39225026613295      0.50975054360914
  O           1.08829139183486      2.90706839729289     -0.17217508040102
  C           0.89105505062931     -0.49869040961878      0.33625310613666
  C          -0.48700100925390     -0.03515345711913      0.69788031905299
  C           1.38590915144246     -1.90442728178863      0.37163693025974
  C           1.62803119927009      0.54828422792717     -0.03668342038797
  C           2.91773749589627     -1.93341961837458      0.25863793832587
  C           3.04485872586626      0.48747276351263     -0.49618061860603
  C           3.42601762227658     -0.96460494982863     -0.81532212819059
  C          -1.60187140101103     -0.64084713629830     -0.14598165987239
  C           0.80441121500356      1.76598026684411      0.06762174933301
  C          -2.99156578756245     -0.13918084132572      0.23504052895774
  C          -4.09729758893121     -0.73865229238907     -0.63066235547023
  C          -5.48769044404406     -0.23895860240335     -0.24769365481665
  H          -0.69285623347738     -0.21331946402371      1.76059909051866
  H           1.05500583969764     -2.40275576916401      1.28822522661231
  H           0.93279296969435     -2.46742338403850     -0.45327783485955
  H           3.35015677173595     -1.65514152646554      1.22475858243444
  H           3.25346076164878     -2.94955931823540      0.04327131400189
  H           3.18181046590140      1.13282884075429     -1.36683436067068
  H           3.69912282667878      0.89518258132486      0.28213162922093
  H           4.50902870947462     -1.05341888653778     -0.91841879647092
  H           2.99289828497720     -1.24398789984831     -1.78129236685168
  H          -1.39323499112700     -0.41819589152390     -1.19700769350977
  H          -1.55646688624708     -1.72946188166821     -0.03558180253624
  H          -3.18529776364375     -0.37637693975412      1.28751212282316
  H          -3.01230177292683      0.95056833078132      0.15585318313223
  H          -3.89912170291285     -0.50038067325983     -1.68089772551128
  H          -4.06601414346435     -1.83110864130063     -0.55501969568652
  H          -5.72470590815625     -0.49212806358230      0.78872903294378
  H          -5.55397820053218      0.84724497145510     -0.34526741489825
  H          -6.25897976144671     -0.67885071747687     -0.88271668862277
