74
Coordinates from ORCA-job 14109386 E -1579.338262289860
  O           1.46833534595179      3.18916219324123      0.16353754039714
  O          -0.89459242620846      2.83757518490661     -1.18102877221970
  O          -0.83644560494234     -2.92245982615249     -0.60040138049847
  O          -6.69990756126381     -0.97582388698170      1.01012333599273
  O          -7.06584792013366      1.10993369923390     -0.76525137987104
  O           7.92477843906273     -0.30894847320869      2.32950171468974
  O           8.00297442538939      0.91712521314484      0.48775166075706
  C           0.90561907520021      0.72209519747300      0.05568461970049
  C           1.69461404831264     -0.43316118673949     -0.63932173063050
  C           3.16725190733051     -0.08078417564622     -0.28961196785001
  C           1.71127991069430      1.93426470919624     -0.47360221792235
  C          -0.59520412910319      0.61404184905351     -0.19415896018626
  C          -2.72140047829918     -0.79850105962802     -0.22075627565646
  C           3.17887888563341      1.46883278981555     -0.38530599361915
  C          -3.39166978993829      0.51758437475979      0.24795069272053
  C          -1.19578556809567     -0.60045967729041     -0.22303420341666
  C           1.14409528273109     -1.74685023868151     -0.10984187069846
  C          -1.39343529572038      1.91087857612033     -0.22372852348565
  C           4.29603745350987     -0.73843249176557     -1.10178931998373
  C          -2.85623456209164      1.69606312774714     -0.54542510064121
  C           1.03645893086545      0.71622973326479      1.60269099667537
  C           1.49384496577643     -0.40701242329013     -2.17004807800741
  C          -4.94372459220367      0.50942431132757      0.39412609251514
  C          -0.35694378440834     -1.83781896963436     -0.32223007019995
  C          -3.11207513270379     -1.84780783120625      0.84579437277099
  C          -3.16443564924676     -1.24872476092290     -1.62651436267506
  C          -4.61783381880200     -2.07465605954543      0.90377589246807
  C          -5.50514785334063     -0.85467814011327      0.80382470219370
  C           5.67786652857475     -0.20079061291897     -0.68329395564825
  C           4.27325363473777     -2.26925594812505     -1.04904286902136
  C          -5.67653050112751      0.92006958608015     -0.92056877198553
  C          -5.32705421542449      1.51135457955719      1.50253361360083
  C           6.10094426009017     -0.54713547101738      0.74081297542223
  C           7.41870488842064      0.09648228226987      1.13294494944772
  H           1.76921098345256      3.15505913244690      1.07803686780262
  H          -0.19318975205923      3.35224624857277     -0.75626067095627
  H          -7.40012572748297      0.37359553210830     -0.22881770536293
  H           7.35812380103532     -0.98217709467787      2.72767612331330
  H           3.31673711317633     -0.37191441327295      0.75309456814328
  H           1.44015329532689      2.11829750018258     -1.50664050017951
  H           3.66666369805955      1.92286501603170      0.47987658301975
  H           3.73228163401244      1.81289319169076     -1.25863058521684
  H          -3.02390254146765      0.65105078513451      1.27296438619524
  H           1.57522450954522     -2.61830997396386     -0.59533711830180
  H           1.34121235617141     -1.85132662061527      0.96075752848761
  H          -1.32082923911979      2.35584897563998      0.77894721316689
  H           4.16900683201243     -0.44064031350865     -2.14688646759160
  H          -2.94802757701927      1.53298452227487     -1.61994840994358
  H          -3.38762207297564      2.62048307630717     -0.32155594239835
  H           0.43722886843134      1.52560738070848      2.02161746174509
  H           0.66032883811459     -0.20675431725039      2.03598217862366
  H           2.06355554171409      0.85685493198914      1.94025823906839
  H           0.43969496421387     -0.36327995935215     -2.43699647028796
  H           1.98778069688501      0.43821098990034     -2.64527755203743
  H           1.90697340779660     -1.31330317738706     -2.61219128514819
  H          -2.62291513783520     -2.79670495941207      0.65420324317213
  H          -2.75437413825728     -1.48932887173384      1.81619970518028
  H          -4.22997009203712     -1.46544340882772     -1.67083751091801
  H          -2.95284637265899     -0.47954784659423     -2.36900921958216
  H          -2.63077602846215     -2.15232344882378     -1.90986440375277
  H          -4.93517734666831     -2.72805681463660      0.08514813395485
  H          -4.90643006300840     -2.60270132633635      1.81508925110006
  H           6.42795857528400     -0.59718983670614     -1.37121320575780
  H           5.71718533969793      0.88168304601288     -0.79929639678491
  H           4.20407246421579     -2.63951766990545     -0.02359076654512
  H           3.43215342833742     -2.68384950146126     -1.60125778589320
  H           5.18395566689879     -2.67921800974810     -1.49111276855464
  H          -5.47413103364514      0.18401515453850     -1.70472145897276
  H          -5.27444897752912      1.87492038367734     -1.25707982160924
  H          -4.89946900224334      1.20724362149741      2.46005496777289
  H          -4.94546929173703      2.50396770557943      1.25924992281525
  H          -6.40557791804368      1.57905694853898      1.60895158315415
  H           5.35469349061947     -0.21039790599693      1.46877105171506
  H           6.18815970802190     -1.62958884694525      0.87445268223007
