30
Coordinates from ORCA-job 14109 E -468.028948112315
  C           2.29375514420901     -0.06172886878637     -0.64187076620763
  C           0.89150635525112     -0.00282463073386     -0.04310751885694
  C           3.40256032012791      0.02419466620797      0.40381509927236
  C          -0.21890479506489     -0.08799022385235     -1.09857974087103
  C           4.80782078714008     -0.03601900025463     -0.19102718044608
  C          -1.59663869876236     -0.03091019681982     -0.49471943825827
  C           5.90857649279621      0.05103846734114      0.86288335106310
  C          -2.24950392353581     -1.19536795689145     -0.09113662094175
  C          -2.23317791673387      1.19130090873885     -0.27977398690008
  C          -3.50044057678037     -1.14273143398635      0.51129469268662
  C          -3.48398098742778      1.25099339122119      0.32213958729514
  C          -4.12241068739534      0.08249091301028      0.72105883617003
  H           2.40524451057945     -0.99094968993511     -1.21241945220375
  H           2.41366196098720      0.75352868401156     -1.36463786201807
  H           0.76255376182367     -0.81821752904755      0.67601936482702
  H           0.77151639079646      0.92481468398118      0.52584361346457
  H           3.29137055596427      0.95378070667582      0.97384716384521
  H           3.28178018238761     -0.79018351336654      1.12745245504016
  H          -0.09586397519753      0.73133520124814     -1.81279017733332
  H          -0.10325639505643     -1.01710489784821     -1.66410351929197
  H           4.91768774115989     -0.96541847730433     -0.75990468429014
  H           4.92727349588592      0.77799102345197     -0.91393757024150
  H           5.83161672206230     -0.77030403692193      1.57988748565946
  H           6.90117217811824      0.00580361242804      0.41037113573592
  H           5.84106637339051      0.98598821329125      1.42495837950496
  H          -1.77217890873520     -2.15492280395608     -0.25458878039663
  H          -1.74302758026058      2.10668818561974     -0.59142316226614
  H          -3.99176245042192     -2.05918454591378      0.81362537785429
  H          -3.96242498693941      2.21014963018834      0.47633616302550
  H          -5.09835209036837      0.12603251820290      1.18739475507897
