50
Coordinates from ORCA-job 14135593 E -1339.077103240113
  O          -2.24212420806451     -0.76642006057152     -0.75962852134606
  O          -0.44320142826208      0.59935147981912     -0.81608104437939
  O          -4.49835809049182      1.99881380358156      1.25385771485483
  O          -5.39270065007104     -0.73516521816531      1.14316986060431
  O          -1.64409794612863      2.24630930877882      1.21121271880495
  O          -3.06228351566762     -3.52385550181988     -1.12230882869490
  O           0.98506091331415      2.79281155678181     -0.07429537905667
  O           0.64366760725137     -1.97923878892930     -0.37579729982359
  O           4.99973305058070     -1.09581826673818      2.04605766826360
  C          -3.61253582055351      0.90775663186174      1.09670532673487
  C          -4.30296533427472     -0.24347918986207      0.36197444720156
  C          -2.36393003640174      1.37586409150117      0.36718128857156
  C          -3.30798637007577     -1.34324615799879     -0.02311294153810
  C          -1.51129115944228      0.16219379709208     -0.00260777802817
  C          -3.93356413731176     -2.42833922116289     -0.88145836288068
  C           0.82562397297940      0.41749518055119     -0.32784522953602
  C           1.57281873785972      1.54845019364805      0.00179142157905
  C           1.38365559651754     -0.85349761298361     -0.15012816689915
  C           3.42096078617140      0.16017124593139      0.66896654912063
  C           2.86344148846339      1.42180691136313      0.49025658066892
  C           2.67535888095371     -0.97071413788551      0.34702369956734
  C           4.84561602998287      0.02478489866513      1.17355038657408
  C           5.79664144173830     -0.17770936602014      0.02987286805893
  C           0.90587886392433      3.33656736592148     -1.39916847137706
  C           0.34079445688861     -2.26294012204420     -1.75156736891987
  C           6.71035099001048      0.70587179586083     -0.34367972552728
  H          -5.33821052300813      1.64213307261428      1.57004650755275
  H          -5.04435867666213     -1.07039941907461      1.97938953167349
  H          -0.84572759685703      2.54934831782219      0.74789082651876
  H          -2.89296861526878     -3.97717452506407     -0.28913423103344
  H           4.29642579966847     -1.06208790913688      2.70541828924952
  H          -3.29008369021592      0.53724957614677      2.08517791912704
  H          -4.76015323746942      0.14951848981084     -0.54895295409558
  H          -2.66328820695594      1.87039138699536     -0.56567019217441
  H          -2.90799125009926     -1.80215723155111      0.89930965485701
  H          -1.11274150495056     -0.30943824430660      0.90461025437615
  H          -4.16537531205683     -2.00849861683597     -1.86117245571839
  H          -4.86905442477985     -2.75184832747068     -0.41531518436805
  H           3.41275336812425      2.31770847871694      0.74983432118204
  H           3.08673781127590     -1.96081031701172      0.48959802369017
  H           5.11643944268067      0.95062440491091      1.69512286982434
  H           5.67488158486752     -1.11457606040765     -0.50523108698044
  H           0.42958083737272      4.30991725566073     -1.30257352635073
  H           1.90883955579626      3.45646430555572     -1.81593342150802
  H           0.30885279862033      2.69262229555606     -2.04667571968297
  H           1.24665835185140     -2.59934735813544     -2.26361818828328
  H          -0.40944978361460     -3.04895133008369     -1.74410226196026
  H          -0.07309827087968     -1.38893300077943     -2.25159817072309
  H           7.35787763684926      0.52848977308827     -1.19261572636621
  H           6.84368278582084      1.64184436580367      0.18718350859590
