43
Coordinates from ORCA-job 14137571 E -737.570926225156
  O          -0.13768947843333      0.69775920932051     -2.07531321998845
  O           2.31698935363777     -2.51152514931300     -0.32812735386641
  C           0.75305097570597     -0.82660552874458      0.59374147009144
  C           0.26734742215035      0.64130817225468      0.39234038908650
  C          -0.72980343055694      0.85183945466970     -0.77421900333855
  C          -1.90583583293934     -0.12861682526904     -0.71455514808512
  C          -0.42535436605242     -1.81303158186573      0.46163142852115
  C           1.84582699029229     -1.16760212583668     -0.45522268911864
  C          -1.33046840125492     -1.55099809028582     -0.73775712378555
  C           1.42247224278985      1.61695954681788      0.32611254615727
  C           3.01509863789874     -0.18847774399557     -0.42381684390099
  C           1.31833508499661     -0.95689911365233      2.01649853725540
  C          -2.87617262782244      0.14217473507013      0.45930614314572
  C           2.56113679864783      1.26407494991828     -0.59663540050364
  C          -3.43999796957683      1.56671081540058      0.42393699586641
  C          -4.03141241826008     -0.86308762477582      0.46780396652650
  C           1.43321108664749      2.72792661230827      1.05883172750587
  H           0.27152609147663      1.53146306395456     -2.32237245413442
  H           2.87809416971547     -2.56622898496666      0.45336827703816
  H          -0.31055071220151      0.89904534974269      1.28480627036014
  H          -1.09488288574965      1.87716917875303     -0.69064906314593
  H          -2.47441218333003      0.03024457648527     -1.63746095596121
  H          -0.01679425936008     -2.82326427123600      0.41018160717510
  H          -1.01931008732069     -1.76680612080951      1.37896078194384
  H           1.38931899161801     -1.13073989785051     -1.44311119285215
  H          -2.13055097572374     -2.29106156510969     -0.76613271029988
  H          -0.77068517008889     -1.67848839703213     -1.66543078984545
  H           3.55049076009082     -0.29377651176036      0.52538389781297
  H           3.71775764009258     -0.45969369410794     -1.21399634396093
  H           0.53931173012083     -0.73048525829511      2.74692046726343
  H           1.65491634669376     -1.97704714843917      2.21413621084810
  H           2.14667229450165     -0.27450591370357      2.20558962410172
  H          -2.33574069822730      0.02576133240764      1.40331995576452
  H           2.24749801042347      1.39171905207366     -1.63619233579094
  H           3.39621169087308      1.94795671372095     -0.43450276162798
  H          -4.18998494493516      1.69971440841300      1.20614688461142
  H          -2.67314454126774      2.32610453371565      0.57859840945734
  H          -3.92276670455519      1.76924408744004     -0.53648787843432
  H          -4.74360250878898     -0.61988127061153      1.25874986045350
  H          -4.57052159835081     -0.84207227216161     -0.48373210575729
  H          -3.69041041177428     -1.88417461804653      0.63595205137273
  H           2.25521390754751      3.43252633924595      1.01056238063423
  H           0.61993598064962      2.97086357615644      1.73281049140439
