41
Coordinates from ORCA-job 14132337 E -1221.237480736399
  O           1.65145040679890     -1.19778699257781      0.09574309479167
  O           0.34035476704782      0.50860536764260      0.86119628383210
  O           5.03870062078947      1.21683543088729      0.11122276384593
  O           5.05192537351022     -1.30834832165423     -1.18797099656924
  O           2.39545602407635      2.36937518907078      0.39852821227547
  O           1.55412481321776     -3.71459107092690     -1.09814816963776
  O          -1.59076470065489      1.94902324081717      2.06094437248490
  O          -5.33971875438619     -0.43485292978161     -1.99493472428670
  O          -5.93196594010176      0.38015231537823     -0.02285831736786
  C           3.83313408730001      0.58954766404457     -0.30594813615009
  C           4.00882078213042     -0.93075726654146     -0.31160674389973
  C           2.61726937833632      0.98174166760177      0.51842031083316
  C           2.72268480457020     -1.61399853637647     -0.76357549892444
  C           1.41165101223305      0.18529307007140      0.01937714466989
  C           2.77560234418382     -3.12683507956229     -0.68369099201001
  C          -0.93560300782280      0.32787751467660      0.41036914999620
  C          -1.92987989689839      1.06780607497586      1.07147168787703
  C          -1.28079663205886     -0.52562624886469     -0.63053569438368
  C          -3.24600813727175      0.95017296529456      0.67090987348795
  C          -2.60698616225828     -0.62107735931743     -1.03110396661351
  C          -3.59972488782990      0.11838996237897     -0.39316659791347
  C          -5.04517576888327      0.04361482179070     -0.75855561240215
  C          -1.30863685343441      1.35099690991674      3.33061543269143
  H           5.03401689628393      1.31616441054379      1.07034541115996
  H           5.79257214409053     -0.71023742191205     -1.02091772282019
  H           1.58447103583190      2.58175496218805      0.87864510723281
  H           0.86619497477522     -3.40294460648565     -0.49823870623220
  H          -4.53653508555850     -0.53811646652924     -2.52020727745726
  H           3.67865918811092      0.92241572392661     -1.33669929398236
  H           4.23052336058082     -1.26012562082042      0.71487148085140
  H           2.77677980378359      0.69467095540895      1.56907232291639
  H           2.49728526378870     -1.31794331784358     -1.79671887022367
  H           1.17219911447181      0.47704499880393     -1.01338821880283
  H           3.03074738705948     -3.42321645002097      0.34144125757233
  H           3.55335277882620     -3.49274759284793     -1.35133402145317
  H          -0.52553841975907     -1.13173535665026     -1.10805192598712
  H          -4.00950453728252      1.52272691002508      1.17868533455931
  H          -2.84937199461436     -1.32202899783145     -1.82056172506033
  H          -1.05960180807058      2.16822078757249      4.00399739958622
  H          -2.18889981593249      0.82238984412753      3.70632031696106
  H          -0.46635695897943      0.65961984940080      3.26145625455254
