19
Coordinates from ORCA-job 1419108 E -477.299986344432
  O           2.42928190518528      0.68959721035151     -0.06289060791739
  O          -2.84277641340568     -0.94643931131166      0.02486751858585
  N          -2.23346113143390      1.66542199109300     -0.18781102599637
  C          -1.19826542192739      0.74699745793967     -0.07867489975618
  C           1.15979194731117      0.18249034428346     -0.03996424113817
  C           0.13669436110642      1.12906899991443     -0.09521400122929
  C          -1.50138898359865     -0.62427084223027     -0.00126002290186
  C           0.85500585492705     -1.17102699973263      0.03253131462751
  C          -0.48811829725653     -1.55681961088362      0.05229665089897
  C           3.50716831849989     -0.22456335160105     -0.01628381682145
  H          -2.93997369712086     -1.90011612239599      0.11189090961004
  H          -3.13148801973385      1.32789654040839      0.12019873506894
  H          -2.02386531054051      2.59912192133576      0.12511043998231
  H           0.40312419195597      2.17664028716076     -0.15830101415880
  H           1.62444259514217     -1.92561686631177      0.07624489939038
  H          -0.73731917977343     -2.61092484093479      0.11338476063314
  H           3.49383238910524     -0.81346459196114      0.90659310427054
  H           3.49368279667360     -0.90404204072156     -0.87458330139296
  H           4.41418509488399      0.37532582559751     -0.04678740175520
