25
Coordinates from ORCA-job 142131 E -352.463874790562
  C          -2.60693354408057     -0.59800981679668      0.10791660812946
  C          -1.37491245210188     -0.15503518700709      0.92523876002850
  C          -2.20614434008611     -1.43944678681756     -1.10340806865392
  C          -3.48257646109097      0.58590651619648     -0.30541892212607
  C          -0.43484825757071      0.76491442041552      0.18635706849614
  C           3.21228046500446      0.30784826731919      0.29379900131459
  C           0.76918436922462      0.44207499340629     -0.19333534461519
  C           1.97861985712350      0.11739489342610     -0.55259405327941
  C           3.90288449921407     -1.01847734801703      0.62295521319739
  H          -3.20017210628578     -1.23194816824727      0.77687274534151
  H          -1.72434364571848      0.35312456025757      1.83058523608357
  H          -0.82412532901462     -1.04121297561323      1.24712129803787
  H          -1.61304940656275     -2.30663074584007     -0.80440182183059
  H          -3.08859993040551     -1.80078810490959     -1.63586819055343
  H          -1.60666434860499     -0.85350233185507     -1.80326636805419
  H          -3.76483285865245      1.19392108308482      0.55758177732329
  H          -2.96441830075996      1.23218478148118     -1.01765154429049
  H          -4.40014599574638      0.24013085294253     -0.78599117791482
  H          -0.79995043517508      1.76170747564372     -0.04970075439948
  H           3.91444328843957      0.95488418037150     -0.24324604910240
  H           2.94108265997060      0.82927058553402      1.21353181564544
  H           2.12636837880653     -0.34341132527323     -1.52819967409022
  H           4.81168779293084     -0.85245290782752      1.20509211419348
  H           3.24102075583345     -1.66710735565630      1.19990928072466
  H           4.18145934530860     -1.55305155621826     -0.28828594960569
