20
Coordinates from ORCA-job 14233 E -382.474448175557
  O           1.62648737765694     -1.04760433563863     -0.12606000484233
  N           0.20266902659508      0.74831734149202     -0.01861809200202
  N           2.48976502243431      1.04504789614347      0.15765504791054
  C          -1.07639013145371      0.01016037935751     -0.00829859664959
  C          -2.17632085223409      1.07356324343347      0.02494374749689
  C          -1.20558830767120     -0.82264078027091     -1.28785601515455
  C          -1.17869149797818     -0.88645657152844      1.23257440620006
  C           1.43680359512961      0.15142545163372     -0.01371558024783
  H           0.16200967501971      1.68044447445706      0.36051814539455
  H           2.38024533244425      1.97914477206354     -0.20455509261199
  H           3.38639359887425      0.62798060792944     -0.03550598438020
  H          -2.10268992170499      1.68817479405420      0.92658397929425
  H          -2.11444356308637      1.72621080385177     -0.84831365461829
  H          -3.15713470701384      0.59803800682914      0.02702702416447
  H          -2.17444428131928     -1.32534315906197     -1.30509930863357
  H          -1.13436519108334     -0.18011772755664     -2.16732694357820
  H          -0.41960560390684     -1.57246173861103     -1.33889104306270
  H          -1.10228368158620     -0.28894850600480      2.14374323903254
  H          -2.13884913138406     -1.40615826828235      1.24488270243449
  H          -0.38055675773203     -1.62620268429056      1.23287302385348
