86
Coordinates from ORCA-job 14314156 E -2035.088714845532
  O           3.61049904630180      0.28139416079852      2.03131647064415
  O           3.68974781438260      1.74523004474998     -0.34824897220052
  O          -1.18849138285739     -2.05340751564286      0.36811625008661
  O           4.18262912362292     -1.07950853966667     -0.50701624564582
  O          -2.97883714605547      0.33065089730404      1.05923867294963
  O           3.46182819378166      3.43289710377609      1.13329234214208
  O          -0.82616085400353     -4.10497583202820     -0.49630753942513
  O          -5.28306029952705      3.08728584495205     -1.16542748455050
  O           5.00948631537075     -0.21934926355094     -2.42622745741816
  O          -1.35124353854224      0.66338874658442      2.58865972884874
  O          -4.58620551042676      5.22133590095878     -1.41246451735392
  C           2.03735812728824     -0.01115979405030      0.02523397357998
  C           2.44794122848803     -0.33801285636036      1.47826716042683
  C           0.47396151566257     -0.27608443364589     -0.03646222175424
  C          -0.27343172650815      0.23453502546544     -1.32499625695273
  C           2.27756697152114      1.46743597184032     -0.32019028723949
  C           0.23275128151983     -1.76018491514940      0.32720196904635
  C           0.18689098077877      1.68837555557284     -1.67020828028599
  C           2.25861413760241     -1.78957637105002      1.84265921212511
  C           2.32713439547996      0.64130032915833      2.56474953271117
  C           1.69903449724901      1.85999128104501     -1.65899087974969
  C           0.78323669415677     -2.14039897495613      1.69715320922566
  C           2.82911642555627     -0.91443435439583     -0.95155073646374
  C          -1.81008709189622      0.30960178099192     -1.09305131416481
  C          -0.06280347835536     -0.70878955066019     -2.51942979907733
  C          -0.36956073968308      2.24487675499902     -2.98415652391941
  C          -2.30335030563648      1.17429292052721      0.08623532321908
  C          -3.29162624955746      2.19903701086203     -0.35695603834158
  C           4.15923131208963      2.71409350087189      0.46243114010478
  C          -1.58268448078222     -3.26632058350140     -0.07491654532534
  C           5.17619860294516     -0.65158809464805     -1.31558066628355
  C          -3.08931456130151     -3.42521662796749     -0.01770774250259
  C          -4.70739587948419      1.86113708804337     -0.72053141621901
  C           5.65910789283117      2.75920025436137      0.42346337806237
  C          -3.09936898893925      3.49832478634712     -0.56961154653549
  C           6.50456772043396     -0.81818326712878     -0.63311545834086
  C          -2.38663223719624      0.14238954476085      2.25741436298642
  C          -3.45752041862671     -4.75006898667699      0.65997085509216
  C          -3.64042183639731     -3.35633832566701     -1.44887558305147
  C          -4.34562732590623      4.09454987904171     -1.09089497412515
  C          -3.16289666003120     -0.82287090006483      3.10436003046227
  C          -3.01929957683829     -4.83512530641641      2.11901630819945
  H           0.08468259938882      0.31088847864131      0.79605517749102
  H           1.82718838966763      2.09614733470552      0.44437885723104
  H           0.65446990359389     -2.41549826525211     -0.42814082629483
  H          -0.18981291515737      2.32890320187103     -0.86529459289082
  H           2.88064213754626     -2.42402137831647      1.20988094693350
  H           2.58944103072048     -1.94514597957886      2.86973408757727
  H           2.12403233047532      0.27575327219890      3.56689026161926
  H           2.02858570190789      1.66540759288206      2.38218963029267
  H           1.94224558151052      2.90984235723130     -1.83461449487291
  H           2.17221606022558      1.29965238325322     -2.46717513639960
  H           0.20587514548061     -1.60140152367521      2.45202923225672
  H           0.62079826042313     -3.20872798483988      1.84868893491822
  H           2.84749718148327     -0.50065347167307     -1.95304027884435
  H           2.41177222687306     -1.91469110199931     -1.00851369494186
  H          -2.24617749753414      0.69815636471350     -2.01181430160596
  H          -2.22475431537527     -0.68055915103617     -0.96020384433693
  H          -0.31755943156242     -1.73770581751155     -2.26729427659798
  H          -0.69874783164548     -0.41801692799497     -3.35522214429923
  H           0.96467616633372     -0.70163237753533     -2.87811099410922
  H          -0.08018614212153      3.29230263744164     -3.08244100984745
  H           0.03600197896583      1.71396210473361     -3.84630956502379
  H          -1.45638365818846      2.20886509424290     -3.04340562388218
  H          -1.48060976695342      1.66594611835574      0.59659146225166
  H          -3.49326372486391     -2.59121238395062      0.55929606407999
  H          -5.27269968908638      1.48520840280842      0.13496885903977
  H          -4.76853154454199      1.12188368745923     -1.52452968532699
  H           6.03082601445583      2.01812927173143      1.13433141976325
  H           6.03484959924093      2.50358678204272     -0.56580530726249
  H           6.00530842265537      3.74330120414539      0.72898143683526
  H          -2.20439842099408      4.07920913023325     -0.41405297039366
  H           6.73615637862013     -1.88169670711872     -0.54739266579705
  H           7.27884194281152     -0.32565548402704     -1.21481000306112
  H           6.45850716666116     -0.41047067058170      0.37601395239013
  H          -4.54153112247923     -4.87477262342868      0.59126314127960
  H          -3.00680206561336     -5.56442661496752      0.08848440774852
  H          -4.72667499598294     -3.45583490414996     -1.43453175580269
  H          -3.39449142458376     -2.40927377520732     -1.93195075730246
  H          -3.22661868014555     -4.16405755449788     -2.05363907557468
  H          -3.03015806400058     -0.57041620008145      4.15384607003773
  H          -4.21802835591171     -0.83615888004078      2.84004780662425
  H          -2.75015931260783     -1.81919886898561      2.93564869655391
  H          -3.29039752406222     -5.79859431597943      2.55301972957491
  H          -1.93686873791144     -4.72561320581002      2.21667913766091
  H          -3.49388498622823     -4.05718314023605      2.72169525932232
