24
Coordinates from ORCA-job 14315 E -464.430094723012
  C          -1.35634782703142     -0.02758586737800      0.30226276020607
  C           0.04587356640622     -0.24633227229303      0.14663439035733
  C           0.90640449225668      0.87215713410690     -0.07689523720509
  C          -2.31398638744204     -1.17650398510923      0.49078763676445
  C          -1.83810862382490      1.25859153492719      0.23971650890020
  C           0.63267667397232     -1.53462388866792      0.20936862522456
  C           0.35495607633817      2.17300724541444     -0.13893150816370
  C           2.29650088540212      0.65579131440855     -0.22970437466289
  C          -0.99041434424127      2.36169242870613      0.01846159599743
  C          -2.65028507560436     -1.89544192753208     -0.82243499645854
  C           1.98378421220144     -1.71076437946537      0.05840814295537
  C           2.82747671746807     -0.60473041085658     -0.16590456477074
  H          -1.90950801564223     -1.89435945593951      1.20846573931072
  H          -3.23585791264895     -0.79194748201415      0.93206612254482
  H          -2.90129408429089      1.42864898651010      0.36365018483944
  H           0.00498406553930     -2.39716556039582      0.38189866943237
  H           1.01644228736744      3.01367827417702     -0.30968717464332
  H           2.93726618640210      1.51315538014987     -0.39818315191018
  H          -1.41167448965296      3.35811206414542     -0.02429672207257
  H          -3.34216191796950     -2.72201472085217     -0.64786830690881
  H          -3.11564024581969     -1.20485377931696     -1.52800556019433
  H          -1.75399377185056     -2.29672847794723     -1.29729190691490
  H           2.40718169777479     -2.70571827144415      0.11231031102988
  H           3.89287783489011     -0.75522888333341     -0.28461618365758
