84
Coordinates from ORCA-job 14356994 E -2033.865678595002
  O           3.73742086438096      0.05233215687778      2.06284859069784
  O           3.90618991364624      1.49904939502933     -0.32211194048778
  O          -1.18619876954794     -1.99310973896017      0.51956251546427
  O           4.21379979837577     -1.36081760923051     -0.45040062778944
  O          -2.32290071169628      0.74329743209505      1.17325637583225
  O           3.86054956846480      3.16480977590255      1.20127502623756
  O          -1.24819570680741     -3.57845779033267     -1.08622932760019
  O          -6.02753538763249      0.98073366218002     -0.86559658224724
  O           5.17960066806983     -0.57157830696269     -2.33548961819328
  O          -0.86229845161748      2.31241443966612      1.87937551111478
  O          -6.62628116611314      2.92307100626365     -1.84987662435625
  C           2.14648043548173     -0.13792040846662      0.06232017033624
  C           2.54957183631603     -0.50984241796949      1.50555641831152
  C           0.56814904635026     -0.32221041663818      0.00027571697524
  C          -0.13212901464408      0.24837257109087     -1.29332850642887
  C           2.47749194841707      1.33083543353172     -0.25480192916157
  C           0.23761444046752     -1.79339306444527      0.36032613054707
  C           0.37266513001621      1.70611535657310     -1.53442511759903
  C           2.30586930813625     -1.95952578419892      1.83932443025714
  C           2.47557435423691      0.45527888522629      2.61161781950139
  C           1.89121941470112      1.80139988220690     -1.56476006561473
  C           0.81807107645441     -2.24053173140815      1.70003801168662
  C           2.89517846212708     -1.06312985878244     -0.93149676053549
  C          -1.68455056791934      0.31627890848700     -1.17296894065903
  C           0.12892226779118     -0.64483216353658     -2.51959769222629
  C          -0.20495644732184      2.39182610254605     -2.77604314058013
  C          -2.34106120147591      1.27890190721594     -0.17674077381133
  C          -3.77895315141972      1.47561042566470     -0.53410213632250
  C           4.47596494715481      2.41080496427952      0.49114536110502
  C          -1.80115028601383     -2.94154563432648     -0.22032526355451
  C           5.26866579087514     -1.02330371192866     -1.22415341035871
  C          -4.82828130361672      0.42212705738535     -0.33232381317903
  C           5.97322542950952      2.34207237162274      0.39816831618346
  C          -4.34563876261792      2.52870613171304     -1.11777443949497
  C          -3.24127617571910     -3.04793120782715      0.15387763728707
  C           6.55298293750589     -1.31790411773337     -0.50103040377949
  C          -1.57204870383381      1.36617597386169      2.10628364594259
  C          -5.77647984471485      2.24583779320484     -1.34911944641547
  C          -3.65770452996821     -2.51471291323828      1.49477104578647
  C          -4.04715977935977     -3.60544311857245     -0.75784915596200
  C          -1.73533934279396      0.70048487457420      3.44297744545924
  C          -5.52016510590348     -3.81237241874976     -0.67386288015199
  H           0.21396361212539      0.29114592277215      0.82724982084505
  H           2.09694623935752      1.97235937950237      0.53575840183803
  H           0.56328408387660     -2.46054849088449     -0.43189434505749
  H           0.06069632297724      2.28824180768360     -0.66284994686113
  H           2.89550712301444     -2.60245774171822      1.18591405105203
  H           2.63842751640642     -2.15400386845702      2.85949138280268
  H           2.27049239015808      0.07880950611135      3.61048358813272
  H           2.21487879272594      1.49359202997966      2.44966160053050
  H           2.18453488864349      2.84375864001133     -1.70455438451148
  H           2.31550743996388      1.24883501660481     -2.40497360829777
  H           0.27564602946492     -1.70922335300238      2.48697734300421
  H           0.60403945354588     -3.30358658685767      1.82648198938265
  H           2.99000812188198     -0.60398693569882     -1.90817711959529
  H           2.39452741031455     -2.01907892551751     -1.05408742054988
  H          -2.04628861676565      0.62911766204781     -2.15215489037096
  H          -2.10550070212760     -0.66859192737961     -1.01811000511958
  H          -0.18867823411093     -1.67107059448191     -2.33883895104405
  H          -0.43472994459330     -0.28375154307354     -3.37940046654344
  H           1.17561705773631     -0.66402715528660     -2.81061421638543
  H          -1.29332749021456      2.44619695886967     -2.77205519160541
  H           0.16664977430190      3.41648428589498     -2.82631976092026
  H           0.10233339028049      1.88964206742074     -3.69450907135815
  H          -1.83845895970163      2.24136743450161     -0.15991084386796
  H          -4.97973453989201      0.18939547557613      0.72351046202553
  H          -4.59759131063935     -0.50816372243948     -0.85807677411835
  H           6.31434072436233      1.58059026951785      1.10280307635178
  H           6.29369443214844      2.05325440622893     -0.60126156759318
  H           6.40291701710350      3.29896423852754      0.68393246117756
  H          -3.88894450240515      3.46303157427873     -1.40336219383442
  H           6.68702975431462     -2.39913408792169     -0.42918445502102
  H           7.38716350096151     -0.88715083579710     -1.04789697761936
  H           6.50924169129837     -0.92432992209268      0.51382666819861
  H          -3.13773830008160     -3.04724955585163      2.29516218735948
  H          -3.39405318515316     -1.46289551374395      1.59694629649587
  H          -4.72711817565239     -2.62702341066584      1.65769103299293
  H          -3.57153601550784     -3.94711529090412     -1.67158749409743
  H          -1.03207820007683      1.12890807698877      4.15132994447894
  H          -2.75485231065331      0.84914457251495      3.80316615156849
  H          -1.57564975683529     -0.37347897654943      3.34589429577882
  H          -5.95899355794862     -3.45254660990842      0.25431332492255
  H          -6.02145638324828     -3.30990758757794     -1.50646066127350
  H          -5.75493380909773     -4.87647878311352     -0.77334230550935
