80
Coordinates from ORCA-job 14356990 E -1807.216807032082
  O          -3.31518244498805     -1.88416225986370     -0.82377552044143
  O          -3.47115368421006      0.87634449039227     -1.49586509286886
  O          -4.31334534302531     -0.02460648282307      1.14939099371441
  O           2.56775541807523     -0.77550034134082      0.67606684057516
  O          -2.94098147813111      0.00192893980752     -3.50824122129096
  O           6.01277393123942      1.68074984044824      0.35536567660171
  O          -5.36125855976004      1.94602564562547      0.79341129436889
  O           1.89522001686241     -1.71358341021685     -1.26232292667822
  O           6.49450334483700      2.61415285180916     -1.64385565210762
  C          -2.02160521448702      0.03657039790228      0.27083331260997
  C          -2.28286106689033     -1.47312781683905      0.07618284800465
  C          -0.53671871181942      0.12417183819891      0.78726752221482
  C           0.10176467221279      1.55026094673609      0.85491807944823
  C          -2.10279319559723      0.81784026739918     -1.05006427541960
  C          -0.12233775760556      2.27137138570697     -0.50799650273076
  C          -2.17977243634847     -2.28028683106236      1.35074364753890
  C          -0.35229653575928     -0.69260590138698      2.07859636079532
  C          -1.95359308845984     -2.17122195250975     -1.17408252890391
  C          -1.58715368941158      2.23746803632718     -0.93632714891572
  C          -0.76455910024868     -2.15459769034420      1.91003136834612
  C          -3.03378273314567      0.60976388262382      1.28907422781830
  C           1.62968555809135      1.42566359406880      1.10592863206568
  C          -0.44385714867809      2.39425126562228      2.01801665818024
  C           0.39803968338293      3.70930449274231     -0.57408291901897
  C           2.43096127605679      0.56149345831282      0.12552599565093
  C           3.80981571438972      1.08877306196101     -0.09687633161852
  C          -3.76432981141134      0.38660248672752     -2.71635864461655
  C          -5.38140348145269      0.74389845187018      0.84939829941706
  C           4.87875172364619      1.05825735780116      0.95532942596290
  C          -5.24905544936992      0.37173288264576     -2.93984808782937
  C           4.30545270535698      1.66963267087105     -1.18643051246015
  C           2.33815633546444     -1.82778297030991     -0.14924235995259
  C          -6.58955982090072     -0.12067049541644      0.61983868263409
  C           5.70539742632650      2.06588708837635     -0.93142352578273
  C           2.73089274346303     -3.12630410235805      0.52181231459840
  C           4.26007176600028     -3.15000760515447      0.74990539428299
  C           2.21821837192013     -4.32501855243190     -0.26889779641218
  C           5.09480199972724     -2.93644365685186     -0.51069324457164
  H           0.02115035209313     -0.40082736492655      0.00710757156025
  H          -1.52053599290632      0.30686302874558     -1.81269608645686
  H           0.42505565219913      1.69496376577202     -1.26172540661230
  H          -2.91659691207825     -1.93162612279321      2.07657488816274
  H          -2.42304974277067     -3.31994994990429      1.12744975714689
  H           0.69047223074598     -0.65583311789055      2.38705990854858
  H          -0.92604860247075     -0.25395326303158      2.89663433354519
  H          -1.67726908461384     -3.22056643874661     -1.11884027588548
  H          -1.58544923088543     -1.64866790526297     -2.04723832824392
  H          -1.68658609170711      2.70743628375962     -1.91695099003225
  H          -2.21147197470330      2.81978102222772     -0.25578680057899
  H          -0.68188904092894     -2.67755339243789      2.86568690512020
  H          -0.07303828698003     -2.64669211386204      1.22051690273285
  H          -3.17002338445435      1.67764976032335      1.16091509096340
  H          -2.71617607462774      0.42578910789152      2.31134717700140
  H           2.04579808615828      2.43221212717385      1.08372825373505
  H           1.81886602447629      1.05438073803883      2.11399955733177
  H          -0.38330002685033      1.85109868190287      2.96068385917880
  H           0.14198831467702      3.30604612953942      2.13616159758549
  H          -1.47918849424267      2.69281533998262      1.87157359577278
  H          -0.15116243152798      4.36731661916843      0.10087572041728
  H           1.45876973113291      3.79001807171080     -0.33593270809103
  H           0.26596273887509      4.09819430036783     -1.58503900423582
  H           1.92953591823006      0.47540834119605     -0.83403918930666
  H           5.14008013249790      0.03901464569436      1.24800803100716
  H           4.59828915058768      1.61367354747711      1.85494382084667
  H          -5.73455019280275      1.19509086341160     -2.41898905777834
  H          -5.46069847374673      0.40467584004046     -4.00573109456678
  H          -5.63450456631798     -0.56652752870406     -2.53498185718019
  H           3.81718325202253      1.84666773834034     -2.13148330512178
  H          -7.40241798528301      0.48359079577663      0.22662734442632
  H          -6.34148345617997     -0.93125518459668     -0.06465532352534
  H          -6.89706476775903     -0.57224818369229      1.56511303091472
  H           2.26293738351215     -3.11802724837925      1.51038275274058
  H           4.51151707576457     -2.38699744496954      1.48911655862620
  H           4.50914066780623     -4.11363821176088      1.20143290236822
  H           2.49892957254496     -5.25061034466533      0.23572721143939
  H           1.13196767541494     -4.29943227553144     -0.35890576284750
  H           2.62582912535354     -4.34047214000359     -1.27848989987125
  H           6.15920539481209     -2.97439192142093     -0.27478680592614
  H           4.89536066275315     -3.69957961643236     -1.26383865667510
  H           4.89361073682755     -1.96474924459590     -0.96777250144517
