37
Coordinates from ORCA-job 143685 E -509.675782517881
  C           2.49348656393110      0.45902473846294     -0.14856789748902
  C           1.13660093113924     -0.17491106534533      0.14731028219552
  C           3.67455259298440     -0.45294701369134      0.17381612988360
  C          -0.04385535025677      0.73737129910765     -0.17619811584301
  C           5.03160831356776      0.18054590004937     -0.12150479396716
  C          -1.39755900560133      0.10019054435864      0.12180561673663
  C           6.21401640127970     -0.73080339508389      0.20021885800125
  C          -2.57392569071155      1.03054126280033     -0.21076672996542
  C           7.56555503084989     -0.08741159726707     -0.09883633662687
  C          -3.87610698913980      0.43676759958421      0.06933449730123
  C          -4.93569374407833     -0.07670953372313      0.31478158278164
  C          -6.22926910525989     -0.69880177553667      0.57789177185988
  C          -6.94820273635679     -1.15319140725029     -0.69968732732719
  H           2.53594354892336      0.74559040670432     -1.20560866470600
  H           2.58955532820114      1.39021535990791      0.42144322342894
  H           1.04026836930274     -1.10617317554296     -0.42224604621352
  H           1.09339476510860     -0.46069200052728      1.20436441801786
  H           3.63173916590691     -0.73979201508959      1.23078022625519
  H           3.57837597341564     -1.38403612359609     -0.39638001810139
  H           0.05252164660298      1.66899509798394      0.39325125308250
  H          -0.00125595421698      1.02239141700783     -1.23376844513054
  H           5.07491487620383      0.46779769805303     -1.17854163905474
  H           5.12845318068415      1.11173045368383      0.44879116488594
  H          -1.50666007805050     -0.82675176673956     -0.44827223226423
  H          -1.45360999190907     -0.17875072290472      1.17779724669660
  H           6.17004398864386     -1.01701887190144      1.25644425116464
  H           6.11652493433690     -1.66066614921149     -0.37014964171202
  H          -2.46967432659339      1.96194187472680      0.35626073854134
  H          -2.52354398649316      1.31266337976687     -1.26799017150215
  H           7.70231949720346      0.82755675610944      0.48324528162535
  H           8.39161958634135     -0.76024047002804      0.14000620405926
  H           7.64823541348654      0.17943349496625     -1.15555065753471
  H          -6.08729657199143     -1.55662933955410      1.24286747825147
  H          -6.86375919280107      0.00636630566434      1.12416105970443
  H          -7.90841506327510     -1.61138207179501     -0.45534808079421
  H          -7.12895255213807     -0.30629452061026     -1.36277394575011
  H          -6.34602776924045     -1.88278757353944     -1.24255154049097
