72
Coordinates from ORCA-job 14447801 E -1578.123348677233
  O          -2.24593457537529     -0.46396097187510     -2.19819308966653
  O          -2.26677049673314      1.65263942398316     -0.28255564873073
  O          -2.94693098624352     -1.03670635181214      0.53663161191838
  O          -1.99678573412466      2.78232701133553     -2.21785635390127
  O           7.42673607067125      0.37030518025274      0.58600737301124
  O          -3.81440915286450      0.28197122839573      2.14872595218611
  O           8.35139565876903     -1.42500754002943     -0.42483197819852
  C          -0.73184092801023     -0.23513383567336     -0.14548968062971
  C          -1.10671559396842     -0.93314820841902     -1.47069884018911
  C           0.79256587746722     -0.55896136161290      0.07288691861025
  C           1.50935550659603      0.19739943284387      1.23991125174706
  C          -0.87306832977238      1.29426393517164     -0.23038130039485
  C           1.24341811703548      1.72121854926831      1.07056702379364
  C          -0.93848869399455     -2.43517832761235     -1.43943930200195
  C           1.05107770327889     -2.07535126510050      0.07612009545442
  C          -0.94946883466110     -0.28237924402970     -2.78041268558498
  C          -0.24885142652252      2.02278224484460      0.94263247000318
  C           0.52908228641728     -2.76923808481070     -1.18158733377492
  C          -1.61382759309178     -0.78989189466135      0.99600033594490
  C           3.03577468572361     -0.07707671094925      1.17230085768325
  C           1.07060295982236     -0.28561377565036      2.63317221297284
  C           1.85551424117590      2.60831273191218      2.15660229587091
  C           3.74488497425185      0.20118201618888     -0.16382036737026
  C          -2.71124955631683      2.34186245957688     -1.35164399606865
  C           5.21607360539609     -0.00822187353346     -0.05804805187172
  C          -3.96188777964236     -0.39104966180342      1.15648595295083
  C           6.11654676815855      0.91628043759850      0.71054440422033
  C          -4.20638085570793      2.46729479667201     -1.31638095453925
  C           5.96894796348955     -0.98340028554323     -0.56678103204255
  C          -5.25188661108194     -0.63348857902294      0.44748623760087
  C           7.37538073190659     -0.77777201543354     -0.17686453486868
  C          -5.23021525051575     -1.49871307044064     -0.77948514355415
  C          -6.32871347860401     -0.03406561171078      0.96812117081936
  C          -7.73267883649725     -0.07791887231907      0.47061103137440
  H           1.25780357216214     -0.17304881402354     -0.84030749898927
  H          -0.39898301404758      1.65308642486146     -1.14061617709471
  H           1.69846591009765      2.01329669800177      0.11741809547260
  H          -1.57648659146340     -2.86732343329442     -0.66619595171884
  H          -1.27414296812865     -2.84629912374712     -2.39239546928356
  H           2.12118368381116     -2.26362598010653      0.16013557741811
  H           0.59922965057525     -2.53860950371731      0.95505004445151
  H          -0.74335569060323     -0.90971528793218     -3.64353222161879
  H          -0.64086253411204      0.75052961809368     -2.87921261619335
  H          -0.38906240597073      3.09357081713309      0.77989017095746
  H          -0.78026241024906      1.78404914692005      1.86572594644484
  H           0.66644857648926     -3.84922685158664     -1.09448359516296
  H           1.12261670301169     -2.44514604886581     -2.04300458785971
  H          -1.66590417533223     -0.10112424077486      1.83058014738860
  H          -1.23499748539567     -1.74051605578192      1.36163447105909
  H           3.51102166069901      0.51703055574275      1.95297176669203
  H           3.22614478475850     -1.11505977034999      1.44946566119185
  H           1.73827446308512      0.11288869354766      3.39756315075252
  H           0.06190772171724      0.02227777810693      2.89556402355494
  H           1.11782019590712     -1.37173489989816      2.70616004417878
  H           1.40941714723952      2.41336696595625      3.13296861273049
  H           2.93430068602892      2.48031917495252      2.24823704024109
  H           1.67357136680158      3.65790157174113      1.91946556044996
  H           3.35414980134267     -0.44817300886696     -0.94738463173405
  H           3.55496739975265      1.23157485339185     -0.47818016738233
  H           5.85604512700223      0.97495596464011      1.77100303128076
  H           6.10829900547411      1.93064983025391      0.29916312581841
  H          -4.56667397556412      2.57665947627601     -0.29521946374083
  H          -4.51940803621141      3.30401868222963     -1.93565528597237
  H          -4.62928795453309      1.54568313472430     -1.72120686212734
  H           5.65874754389075     -1.81581237434469     -1.17855386300452
  H          -4.91409897006764     -2.51474979173355     -0.53202961567041
  H          -6.21075456596920     -1.55500566105722     -1.24725047336883
  H          -4.51240675357533     -1.12341143363273     -1.50975082112562
  H          -6.15898630928816      0.56022417127993      1.86023717361882
  H          -8.39570050275782     -0.47379656139605      1.24607962717419
  H          -8.08803008215029      0.93406675290168      0.25244124445627
  H          -7.85803201085840     -0.68330737564581     -0.42474511605900
