15
Coordinates from ORCA-job 14504 E -362.760040940581
  O           2.74033053649041      0.24683942927563      0.13543595872077
  N          -0.74669083876896     -0.68580960952170     -0.01816265518347
  C           0.38949840801108      0.10704784208168      0.03111273402659
  C          -1.83736612970622      0.11893465990783     -0.06782514951707
  C          -0.02603632910654      1.43331085622497      0.01058243184210
  C          -0.79076137765059     -2.13645999873356     -0.01760865598186
  C          -1.42537775611464      1.44109193121324     -0.05158166082928
  C           1.73044395439359     -0.42792966651100      0.09149121881601
  H          -2.82863133765471     -0.30129207354808     -0.11116378123095
  H           0.64138833234690      2.27789181580410      0.03885615675360
  H          -0.34633830152520     -2.54093356125793      0.89225151841556
  H          -1.83141496188566     -2.44917246009923     -0.06508446009926
  H          -0.26455744067793     -2.54396746482645     -0.88129029221888
  H          -2.07316617455900      2.30089863058943     -0.08173753008188
  H           1.80385341640749     -1.53510133059892      0.09633016656802
