14
Coordinates from ORCA-job 14505 E -382.633893905519
  O          -0.65021001668848      1.06374701521096      0.06620131828334
  O           2.07468294412394     -1.19359171067181     -0.13933953932589
  C           0.00675758042174     -0.13794210488902     -0.01614146047563
  C          -0.90343717484290     -1.15505837110708     -0.03578627389277
  C           1.47082394031098     -0.14043360071545     -0.06601074642036
  C          -2.18749491589043     -0.55344548357845      0.03797644321421
  C           2.17026094557547      1.19693808448864     -0.02263059836308
  C          -1.97218665979849      0.78918563857024      0.09758020711618
  H          -0.66054576039609     -2.20185320777244     -0.09624638009871
  H          -3.14438593203431     -1.04704895457232      0.04601088537839
  H           1.90956737663409      1.73430172466327      0.89181741362293
  H           3.24463230352656      1.03646843406054     -0.06705274415165
  H           1.85030485704651      1.82208199820742     -0.85915555151004
  H          -2.63142148798859      1.63733853810550      0.16230302662306
