19
Coordinates from ORCA-job 145025 E -311.005790983877
  O          -0.03173506093878     -1.28279618745070      0.87435183925134
  C           0.03914159415490     -0.17140776857039     -0.02291046372875
  C           0.74144714237060      1.05088116066889      0.63794243927702
  C           1.29565069531529     -0.37562039257248     -0.89873370247561
  C           2.08747752711835      0.55733930621336      0.05095339038399
  C          -1.28870783750811      0.06131832664705     -0.72598192343899
  C          -2.42758062430313      0.42891944071713      0.22312101160587
  H          -0.62397814882238     -1.05173073151517      1.59886172820201
  H           0.41637812415321      1.99481397569797      0.19698459166117
  H           0.66116996784245      1.12117974670438      1.72331942221865
  H           1.62833301582417     -1.40861532057920     -0.98701719187726
  H           1.16718598663235      0.05047725863166     -1.89450543986548
  H           2.72463347888393      1.30911049974861     -0.41315318231302
  H           2.67387054666532     -0.00112634475340      0.77858997983275
  H          -1.15336623949782      0.86036071730417     -1.46055956208093
  H          -1.54255855342687     -0.84509402744057     -1.28403844863555
  H          -2.65252800295187     -0.38630381700784      0.91508772423584
  H          -2.18203922268333      1.31637231399101      0.81221938433977
  H          -3.34511838882826      0.64197584356552     -0.32738559659283
