47
Coordinates from ORCA-job 145659 E -1300.534906904440
  O           0.11686754219194      0.43712534126364      0.11932710997338
  O          -4.16741950287480     -1.69061712907446     -0.60476543396425
  O          -5.37530613645734      0.58719254048859      0.20568205828837
  O          -3.83417855421048      2.83599729191184      0.83178504478244
  O          -1.72708843548789     -3.07306707129791     -0.78960698875001
  O           4.59447842229480      2.09894904730489      1.12372430601186
  O           6.36730026311406      0.37599398912727     -0.01334777001254
  C          -1.96422889203460     -0.76357162409510     -0.19768326286944
  C          -1.24854434348111      0.39277155166449      0.13578578593809
  C           0.83705543469371     -0.65128312499763     -0.24544058304911
  C          -3.37425009948579     -0.67018551675721     -0.18548695342886
  C          -1.21055875916719     -1.98680422156569     -0.55117921086116
  C           2.28062683153871     -0.40101935720796     -0.21862106368301
  C          -4.00856072168495      0.51607145321751      0.17655607618988
  C          -1.86678034253861      1.57868646740411      0.50541059552779
  C           0.22953950463045     -1.81175339631924     -0.57106359355180
  C          -3.24703649808935      1.64382122655695      0.52913785914303
  C           2.79134101965460      0.74825176318541      0.39715355876052
  C           3.18113584724667     -1.29126983798347     -0.80139724744251
  C           4.14907259357216      0.99533480262617      0.44915579759628
  C           5.05046447762452      0.07979926123930     -0.12594526732148
  C           4.54665437176143     -1.05642064163565     -0.75660324174828
  C          -4.48214062933025     -2.67810049858060      0.38235595441942
  C          -5.98397062381978      0.77595748011305     -1.07697656878468
  C          -4.64616679179730      2.86153869195076      2.01240405313687
  C           5.16638293841994      3.12871794788704      0.31444089261669
  C           7.31412917340257     -0.54137220344046     -0.54008821517361
  H          -1.27729371089745      2.44743987082475      0.76008817877173
  H           0.81406717835725     -2.68204745027976     -0.82496558051037
  H           2.13015745217797      1.46461684840679      0.86127670189833
  H           2.82363657939683     -2.17503057044470     -1.30985711985963
  H           5.21671446495882     -1.76781647982272     -1.21541228213177
  H          -3.57860050026926     -3.19726590760954      0.70037251140269
  H          -4.98830022155621     -2.21230650720548      1.23212500178863
  H          -5.15224541181042     -3.38425988067714     -0.10270442590685
  H          -7.05704610904126      0.82227632113122     -0.90189792115817
  H          -5.64408749844719      1.71361620452348     -1.52467570039012
  H          -5.75227456641972     -0.06106179042974     -1.73704662026622
  H          -5.47823872084411      2.16331755555688      1.93410309704395
  H          -4.03860770467755      2.62212802554032      2.88985242574212
  H          -5.01852292438361      3.88016921052402      2.09632308429898
  H           5.43631090033715      3.93412358969796      0.99431853554332
  H           6.05667264348352      2.77497022468003     -0.20716018688150
  H           4.43338594787126      3.49409020342170     -0.41124691024708
  H           8.29137416642726     -0.11905479966212     -0.32035434085689
  H           7.22417901117843     -1.52016980006989     -0.06141594146754
  H           7.20029393447211     -0.65315410109171     -1.62198119855748
