62
Coordinates from ORCA-job 14583572 E -1610.004720579540
  O           0.58726261981799     -2.42433935103082     -0.89672621713597
  O           4.96124884827670     -1.46442237454244      2.32969659696225
  O           1.05837975251116     -3.98087560794018      1.24683451568991
  O          -5.05957919453980     -0.02041073455260     -2.50128346676943
  O          -7.98916909548555      2.15010118648532      0.63621101062541
  O           6.49858810612980      3.91242247427738     -0.88802009037889
  C           2.48239024335530     -1.04434696692756     -0.36812708066945
  C           2.19892199329076     -0.17255194061867     -1.56107190582047
  C           3.50975816308941      0.29021334647408     -2.19080482275070
  C           3.59449071154575     -0.74775096939018      0.44626797425263
  C          -2.28060494098697      0.73594388195638      1.60388790708286
  C           4.35371107514892      0.98786887301837     -1.16110912262247
  C           4.37990961377075      0.46780289531001      0.14717284697319
  C          -2.04365603943471     -0.23114378350236      0.47623672706367
  C          -3.68701765643420      0.53510374087841      2.15861032828754
  C          -3.09653314439905     -0.50458707028043     -0.41448347000208
  C          -4.70269017878141      0.69819653432625      1.05926543980066
  C          -4.38775261403512      0.18788590494113     -0.21914414516923
  C           1.65717226394588     -2.12204631169417     -0.08024797200588
  C           3.86841736284141     -1.62668230209435      1.50400973301579
  C          -0.81098475946460     -0.85644711762117      0.33384761566253
  C          -0.60566737428099     -1.77254760260648     -0.68795322269387
  C          -2.86606703857961     -1.45155437650706     -1.42152821845276
  C           5.06932794391137      2.13172521031921     -1.47901096684011
  C           1.91878818443838     -2.95433559410232      1.00757365452709
  C           5.11054919071200      1.16446093290436      1.11399888963638
  C          -5.33640742805306      0.40020192285494     -1.22761532757778
  C          -5.89961078029691      1.34170285871010      1.31263895361320
  C           3.04128968296711     -2.70606325479834      1.78294554532471
  C          -1.64070577281164     -2.07842312700640     -1.56163284850484
  C           5.81363291611527      2.79260206546202     -0.50863643414247
  C          -6.83646465961505      1.51171286621554      0.29631727286571
  C           5.82291545046507      2.31063097204534      0.79547525424647
  C          -6.54917333404561      1.04410316448550     -0.97873502670377
  C           6.19700057448213     -1.88281047205833      1.75063335702208
  C          -8.96515637119944      2.35545354127898     -0.36841093550894
  H           1.34388506109783     -4.45759750326594      2.03417183598444
  H          -5.77468205715273      0.25535076806279     -3.08474140172459
  H           6.95446108853349      4.28304716790594     -0.12400105978901
  H           1.58985039110016     -0.71697127701318     -2.28043498335234
  H           1.61518468234059      0.70051354171894     -1.24706682322563
  H           4.04586339667034     -0.58408425365659     -2.57906266922364
  H           3.32030243841661      0.95180124607996     -3.03699186440599
  H          -1.52907252629856      0.59930977109556      2.38293802570735
  H          -2.18345695012037      1.76556036140754      1.23851713542807
  H          -3.76235889460973     -0.47520914364609      2.57847408936004
  H          -3.89661644986563      1.23703162580272      2.96678987783512
  H          -0.01474851145179     -0.63268335452867      1.03071395850210
  H          -3.65887150186340     -1.70601988186332     -2.10541633867689
  H           5.04770233524296      2.53167938770506     -2.48489171924941
  H           5.11932258744716      0.80743848882305      2.13196793543739
  H          -6.12354429533597      1.72760003853572      2.29824583700244
  H           3.29364113211282     -3.34736097572203      2.61905120668083
  H          -1.47467605481706     -2.81230820541755     -2.33883346254204
  H           6.37851465703639      2.83431465497866      1.56598193910641
  H          -7.24688805310121      1.17449245583687     -1.79507154875186
  H           6.96866442649791     -1.69264079410550      2.49436844576399
  H           6.16683528176497     -2.95150069701500      1.51776647042054
  H           6.42090987962537     -1.31923058489656      0.84191887426098
  H          -9.79136345472514      2.87187436864762      0.11467955687663
  H          -8.57691797268142      2.97668790967540     -1.18173041049807
  H          -9.32265095023505      1.40559647018510     -0.77824225582983
