38
Coordinates from ORCA-job 14609851 E -847.064381944067
  O           0.38523155001772      2.44368996456960      0.65615185406122
  O           2.93812024632474      2.13361677132848     -0.18389422066909
  C          -1.59916027445704      0.35098563955776      0.05914767892924
  C          -2.24313752418353      1.70535343101748      0.24765860083302
  C          -3.73509743854023      1.74377023269058     -0.06426325886778
  C          -2.40224605450708     -0.80356079167357     -0.09466203361773
  C          -0.19577494657177      0.21316395670320      0.03361882643634
  C          -4.44244166518485      0.53597860703132      0.54375640240770
  C          -3.87977327071915     -0.70982672984207     -0.07976805398115
  C           0.40486962095261     -1.04895629553412     -0.15921650785242
  C           2.75085296875836     -0.22195516377155     -0.18328040764663
  C          -1.78228979640810     -2.04804552965756     -0.23354706748146
  C           4.24639428767548     -0.39991240691271     -0.26870289052122
  C           1.84789193637999     -1.21837243842341     -0.22652930001284
  C           0.72198351533627      1.35812729662197      0.23890794851129
  C          -0.40831161220007     -2.17347405315734     -0.27563538407268
  C           2.23774837562348      1.15234531480077     -0.06494670057719
  C           4.89055039915720     -0.13440489836205      1.10291897508359
  C           4.67615022916055     -1.75822335510223     -0.81758176739951
  C          -4.67205550915612     -1.62943076541884     -0.63643008826633
  H          -2.07439494795963      2.01511341987800      1.28378255356793
  H          -1.71090446493183      2.44936893279261     -0.34333671344509
  H          -4.15843733126240      2.67475349245396      0.31759778175748
  H          -3.89403620515502      1.74016649946044     -1.14672600404060
  H          -4.26544784323435      0.52400670597928      1.62590143917312
  H          -5.52069178256549      0.58143476840846      0.38854672263568
  H          -2.39450061215555     -2.93728451391733     -0.29189340666518
  H           4.60622332815059      0.37921105726046     -0.94710115103913
  H           2.18683418416142     -2.24039332607040     -0.34922353958818
  H           0.04502774905265     -3.15039377307135     -0.38865215782767
  H           4.62848845661957      0.85443262573072      1.47710748082015
  H           4.56130270393376     -0.88065350756377      1.83021666639566
  H           5.97818422465081     -0.19067025451705      1.02698544685822
  H           4.40274252840211     -2.57207925585003     -0.14098587035073
  H           4.22827794967402     -1.96057629410392     -1.79247310348269
  H           5.76071923560717     -1.78539289095629     -0.93289449418601
  H          -5.74854540878777     -1.52202235455623     -0.60469453576079
  H          -4.28837980165852     -2.49955611782321     -1.15170772011854
