41
Coordinates from ORCA-job 146102 E -736.367191853981
  O          -0.03425013095968      3.09113562664103      1.03157889847732
  O           0.01832638126274     -1.97355311957104     -0.32689621755287
  C          -2.59557944817849     -0.82228560410552      0.00144605413044
  C           2.60763295402790     -0.77555652514020      0.02834548835527
  C          -1.29068644567239     -0.02374405443126     -0.04460957503912
  C           1.28914959574789     -0.00057864871238     -0.03126524149243
  C          -0.01999582703267      2.14232519238911     -0.05841013084017
  C           0.00656474444797     -0.76456472468289     -0.15355222754153
  C          -1.25944094596187      1.31149517131323     -0.00460647963957
  C           1.23354042108012      1.33388387052837      0.00832855615820
  C          -3.80873392875683      0.09803271435271      0.18960950052349
  C          -2.56839395205804     -1.80879464352001      1.18612682835324
  C          -2.78906389628323     -1.59122525508883     -1.32134196116577
  C           3.80206635012342      0.16640669227354      0.22873322078435
  C           2.82846327335063     -1.54098720326963     -1.29218537964196
  C           2.58599539328001     -1.76230542277584      1.21294501100693
  C          -0.02105565401272      3.00203220527887     -1.32773600460838
  H          -0.03342721645621      2.59071047701053      1.85684502833901
  H          -2.16895720871762      1.89310902455735      0.06657737425582
  H           2.13170873278252      1.93169568566238      0.08886402923837
  H          -3.74624284793185      0.67145325075215      1.11684201210474
  H          -3.92530528711031      0.79691186432707     -0.64098445319491
  H          -4.71328420053512     -0.50990485888541      0.23640022433032
  H          -2.43494898327552     -1.27373129990166      2.12942402729291
  H          -3.51848230335912     -2.34494159317157      1.23762267392022
  H          -1.76840897157909     -2.53670268790986      1.08210534771679
  H          -1.98874118589946     -2.30719402775023     -1.48562935115699
  H          -3.73909987268536     -2.12991856159653     -1.29564848277984
  H          -2.81880197841437     -0.89878402492456     -2.16577487510251
  H           3.71980796673051      0.73858701767342      1.15518827121650
  H           4.71686098226910     -0.42519020435900      0.28489228685202
  H           3.91457397983572      0.86728960186384     -0.60073613408088
  H           2.04279621443445     -2.27115838776752     -1.46448513736658
  H           2.85452391955941     -0.84819758842377     -2.13644972282146
  H           3.78763701073466     -2.06264512217435     -1.25651096630708
  H           2.43352213079730     -1.22963392520064      2.15470724036143
  H           1.80019984704270     -2.50434686429973      1.10095515170086
  H           3.54488688635827     -2.28149106889592      1.27416018451646
  H           0.85884553367436      3.64619752733479     -1.33357071684488
  H          -0.01082182063780      2.37127963441266     -2.21606215057080
  H          -0.91201921202194      3.63063986018728     -1.34286120188694
