38
Coordinates from ORCA-job 147111 E -809.175638260959
  O           1.37855499183736      1.57314906861741     -0.13973628701409
  O           0.89074766931676     -2.11349292543587     -1.34204935774785
  O           3.53973915812018      1.97683143315597      0.26802349725906
  C          -0.85496761829864      0.88887331892523      0.44380090631333
  C           0.46382023051817      0.44663035116392     -0.17196338387466
  C           1.19907817902168     -0.69028576006041      0.55721721237477
  C          -1.77221739298383     -0.24702667487834      0.99215407145126
  C           0.78571214291463     -2.08098117703171      0.07876452706148
  C           2.68646798140059     -0.30793242147154      0.42512069955189
  C          -3.14457085342536      0.44773364625636      1.07412963341009
  C          -1.75378082923194      1.68655532797037     -0.48322976141731
  C          -1.72471402073509     -1.51614063073228      0.16768585785621
  C          -0.62664652390973     -2.48217246853963      0.53570752532093
  C          -3.19927311179637      1.44118619673401     -0.09974335946128
  C           2.63424173043279      1.19626222191634      0.19879368520051
  C           3.50167359625179     -0.95159141984941     -0.70288656370836
  C          -1.34655033571111      2.45512551464953     -1.48488261058437
  C          -2.57758429942208     -1.79856397520769     -0.81287931749101
  H           0.51892650471910     -2.94178664076858     -1.66235668858100
  H          -0.60094465095320      1.52486302505277      1.30082400704122
  H           0.31519567622150      0.18064810813280     -1.21726697431878
  H           0.94894661890612     -0.63514031178965      1.62028227036647
  H          -1.44075781386711     -0.51365788890801      1.99824919601658
  H           1.48549079930652     -2.80806107703686      0.51303483815844
  H           3.21199576229236     -0.48078512188922      1.36538762803854
  H          -3.96560786941040     -0.26807553366258      1.06996621606718
  H          -3.19629220490754      0.99374904846631      2.01831411737623
  H          -0.84559819928256     -3.46664424307377      0.11153157540246
  H          -0.60198888431735     -2.61048552743611      1.62311243194430
  H          -3.74628842349553      1.02916359017641     -0.95026467775602
  H          -3.70587703134016      2.36787557850690      0.17608093967920
  H           3.57100881019598     -2.03031902876668     -0.56408062286823
  H           3.05464591929288     -0.77138133720032     -1.67858847739135
  H           4.50820334015504     -0.53314470408283     -0.69259365815726
  H          -2.05877482873508      2.98618804085875     -2.10555002614963
  H          -0.29824945722122      2.59631343125533     -1.71059280617604
  H          -2.50493526572308     -2.72555172020442     -1.36835195140720
  H          -3.37762549613608     -1.13075431381248     -1.09924931178570
