34
Coordinates from ORCA-job 147621 E -1068.168148147927
  O           3.08932811458799      2.11883342811449      0.31138716586997
  O          -1.97585683785555      2.98775490672152     -0.01323683880780
  O           0.54408809101064      2.47543619819902     -0.69391419700572
  O          -0.35019596472538     -2.73721955436874     -0.51819265799889
  O           4.49876870731094     -2.41829656236501      0.47494133418889
  O          -5.19164418614874     -2.10446926680906      0.42964173680280
  C          -1.28855094063653     -0.58627719862023     -0.26325077911377
  C          -1.04717542122318      0.79635213909175     -0.21981773432464
  C           1.45113152642360      0.37186620393629     -0.10374530219938
  C           1.21796462248577     -1.01500451817215     -0.13320822399865
  C           0.33919410127785      1.32482845110348     -0.35545651174775
  C          -0.15604702472949     -1.54931241782720     -0.33990588306198
  C          -2.57552252880365     -1.10767065583751     -0.22989097749696
  C          -2.16002988292980      1.65114679161258     -0.10151415827954
  C          -3.66667962139360     -0.25679381181986     -0.11458004608008
  C           2.76550941645716      0.80525500227489      0.15500223784444
  C           2.23832671365614     -1.93626114784205      0.04174937898523
  C          -3.44391070415768      1.11152823067773     -0.03843222656152
  C           3.78159194142714     -0.12121753696767      0.35860026145650
  C           3.52786610200683     -1.48677745533775      0.29100134159791
  C          -5.07892660307931     -0.79321694214053     -0.09324342077601
  C           3.50199203127526      2.80449057759580     -0.87467735298430
  H          -2.83117330892401      3.41738021229858      0.10739453488799
  H           5.34369238245125     -1.98564662150351      0.64486004734505
  H          -4.82409262972025     -2.11564914673458      1.32109406922164
  H          -2.70916568814251     -2.17776026512230     -0.28745562726881
  H           2.02012177376944     -2.99320568944298     -0.00313692535932
  H          -4.28714919842252      1.78659413772893      0.07690200108296
  H           4.77316041286997      0.25253001241864      0.58647963058779
  H          -5.45854752035851     -0.85732490795599     -1.11622330677454
  H          -5.72691476560806     -0.09203219587983      0.44744015995099
  H           3.74501897716433      3.81881092481625     -0.56668639567205
  H           4.38978324415066      2.32685820966452     -1.30147832985951
  H           2.69263166853379      2.82808446849248     -1.60315800445093
