18
Coordinates from ORCA-job 148675 E -551.362037182551
  O          -2.16271705139763      1.86531780899019     -0.16249712817143
  O          -3.23773150939946     -0.58866402183209     -0.06441177701446
  O           2.79202741733392      1.23849456755547      0.46611764203536
  N           3.17977296140634     -0.90949229282667     -0.11969157934745
  C           0.88236860535932     -0.13370281233342      0.10035253680498
  C           0.02794816619976      0.96516187786152      0.00323561388226
  C          -1.34118765780951      0.78781853585142     -0.05623434264735
  C           0.34652932365264     -1.41878391835515      0.15684779049921
  C          -1.87050093063334     -0.50811498264598     -0.00430292627800
  C          -1.03010373168984     -1.60300437883532      0.10835230118806
  C           2.35086488231108      0.14415025632841      0.16293689510524
  H          -3.07733393158013      1.55374891254073     -0.18311102023512
  H          -3.52203295503922     -1.50734858756223     -0.01315942911468
  H           2.84460834414491     -1.70109895172090     -0.63915280720484
  H           4.16154600547195     -0.69490501581339     -0.18130960866361
  H           0.44361863689096      1.96261961819606     -0.02189614188584
  H           0.98497940884059     -2.28210420543529      0.28301582799541
  H          -1.45172698406233     -2.60029040996337      0.16635115305226
