58
Coordinates from ORCA-job 14863079 E -1495.489110406515
  O           1.53284231307318     -4.32505507430745      1.12777780538252
  O           5.13234937786923     -1.47741683455562     -0.04027210670335
  O          -4.63949283633931     -2.60907537423823      0.30691779015398
  O           2.62914059778969      5.28046120236190      1.52474066995155
  O          -4.04978273854945      4.62441426156138      1.07976203650361
  C           0.98760742305947     -2.18627721552561      0.05088490399339
  C          -0.45822795197067     -2.31984085162037      0.14257294091513
  C           1.54588044322076     -1.04464065427071     -0.59702429335870
  C          -1.29548630107642     -1.39501508116741     -0.54232635666561
  C           2.94249057966941     -0.80480690558819     -0.64214098602242
  C          -2.70848947840991     -1.50970151806471     -0.50815575833657
  C           0.65469684985121     -0.12293181022125     -1.22716092955523
  C          -0.68482532226221     -0.30453753374606     -1.23101856616295
  C           1.91728179341971     -3.12272300621088      0.56897608244823
  C           3.51593611266084      0.42429871415534     -1.30325240417455
  C          -3.59458216830373     -0.54484409009419     -1.25537867382596
  C          -1.09678384514663     -3.30028116763478      0.93002333671355
  C           3.78356110821416     -1.71952565830147     -0.04120245238431
  C          -3.27306937871460     -2.51184953028655      0.25691323233699
  C           3.27064848776349     -2.88339745178130      0.53663768676228
  C          -2.46513242196442     -3.39120420387401      0.98734575843357
  C           3.25782573764025      1.71893566182908     -0.55772878430955
  C          -3.69311714801946      0.83684048475626     -0.63724938290300
  C           3.24887557574810      1.76701342834907      0.83579484460833
  C           3.04580676426115      2.90653940696995     -1.25034994057332
  C          -3.57950938513344      1.03661747003257      0.73756624728290
  C          -3.92802073301290      1.95012836292639     -1.43868573052813
  C           1.30815481952859     -5.35593799553356      0.16590294667185
  C           3.04175269102926      2.95530210554241      1.51784427319412
  C           2.83559038000851      4.10717511830858     -0.58256350020461
  C          -3.70144638218533      2.29849305908450      1.29840618777690
  C          -4.05309657678691      3.22186483962518     -0.89335891217288
  C           2.83377730499181      4.13350168355145      0.80758116268516
  C          -3.94064848572969      3.39847499116638      0.48158866647599
  H           5.58358143046829     -2.19151068797595      0.42213114751568
  H          -4.88399484006897     -3.33882641864580      0.88585100041207
  H           2.48414309910184      6.01569015143513      0.91908907304183
  H          -4.21322727287033      5.29514463788187      0.40760961606944
  H           1.06352684460252      0.75042984036191     -1.71064603724896
  H          -1.31022753193862      0.42426843471071     -1.72349954802558
  H           4.59221138423188      0.28526125662885     -1.40953916016344
  H           3.12173455499175      0.51634090007506     -2.31812055475583
  H          -3.24261206325881     -0.44485707594650     -2.28490627583110
  H          -4.59470290877536     -0.97536262950957     -1.31777051076881
  H          -0.50508288633489     -3.97407705110568      1.52356345552527
  H           3.93173422452842     -3.62887353626024      0.96349351716467
  H          -2.92783081151029     -4.14789326646459      1.61258485520090
  H           3.39672080078164      0.85441762249832      1.39886860588792
  H           3.03910221748733      2.89876445476003     -2.33445069411121
  H          -3.38109172454912      0.19016256336449      1.38213813522886
  H          -4.01247748316753      1.82688096881488     -2.51248992755534
  H           1.00857541374843     -6.24215829032710      0.72259136752292
  H           0.51536831244158     -5.07875790612612     -0.53383414269559
  H           2.22566524319030     -5.56520412908630     -0.39162788032793
  H           3.03140181314796      2.98518313514239      2.59925820213255
  H           2.66642546700633      5.01993141537210     -1.14392786784612
  H          -3.60695752343999      2.44727333014374      2.36581614411190
  H          -4.23161196600815      4.07566044706035     -1.53847031489301
