29
Coordinates from ORCA-job 148724 E -840.509119014682
  O          -2.30382791157851     -1.35177547359052     -0.00453167569679
  O           0.45445251584267      2.49053828610070      0.23032243922246
  O           2.75633762102080      0.81864194571081      0.15940315767288
  O           2.42211774794515     -1.84131695838058     -0.04935151579997
  O          -4.52235533623894     -1.22093958500444      0.04098847364773
  C          -0.91967692123204      0.60352715442364      0.08893176242911
  C           0.38835575207180      1.14320295379811      0.09280877365738
  C          -1.07152409554968     -0.78088866234217      0.01021892757737
  C           1.49406193287730      0.30336025563958      0.02731382989794
  C           1.29299764800166     -1.09647947873193     -0.04018599435118
  C           0.01688595827399     -1.63883853228557     -0.06068048062736
  C          -2.10391004850018      1.40119978309890      0.15153228540443
  C          -3.32413414130191      0.82614775574051      0.13779733479106
  C          -3.48642485203378     -0.61159524508327      0.05907246973904
  C           1.45331045315277      3.24381777450854     -0.45937340608340
  C           3.62177768548740      0.69114117002586     -0.97146058643339
  C           2.30029654521606     -3.25746514934685     -0.04998846101520
  H          -0.16038359267136     -2.70095102909643     -0.11052626828642
  H          -1.99814454743703      2.47548085119262      0.21156793738224
  H          -4.23729223887990      1.40077708530274      0.18321135508833
  H           1.07703765415583      4.26466860103740     -0.49138804297842
  H           2.40622613036843      3.21217869287888      0.06364914971956
  H           1.57909464592545      2.87404398068486     -1.47951101275668
  H           4.53384846186846      1.22688530995984     -0.71554215230450
  H           3.85337366771902     -0.35328334372459     -1.17568999908429
  H           3.16877936190143      1.14559018578217     -1.85769836516255
  H           1.76230797217907     -3.60548812346349      0.83513515588051
  H           1.79019063992806     -3.61032059931248     -0.94998830255419
  H           3.31686929148798     -3.64175360552284     -0.03311478897569
