15
Coordinates from ORCA-job 14918 E -457.866546460677
  O          -2.53502980366162      0.43449579986807      0.05205974723666
  O           1.82741779514716     -0.77792239963734     -0.04200764769000
  O           1.57874430121463      1.45641455111831      0.13043304867150
  C          -0.34187833338228      0.06407252260103      0.02311450703881
  C          -1.01743888398598     -1.19837001446980     -0.07466658343541
  C          -1.31753689423153      1.01109961740921      0.09656464208717
  C           1.09524358603205      0.35234683448697      0.04528656648686
  C          -2.33832174737993     -0.91601300871237     -0.05254497565466
  C           3.25033909839857     -0.59463102282857     -0.02808910548849
  H          -0.56008562976566     -2.16898785313478     -0.14996269033298
  H          -1.28173305313421      2.08249923974232      0.17956791000692
  H          -3.22880911273236     -1.51667954011145     -0.09895789325685
  H           3.56372424128359     -0.11465805685558      0.89854281525186
  H           3.67417823229004     -1.59208503648411     -0.10532608594161
  H           3.56343920390751      0.02210536700810     -0.87001625497976
