33
Coordinates from ORCA-job 149782 E -992.960799094644
  O           1.89146456185840      1.99121515518751      0.07803352796063
  O           3.25504745123468     -2.53246777116442      0.27522531811935
  O           4.32012815449412      1.20040990546569     -0.60764413394856
  O          -0.70274550380223      2.50626936082388      0.10408794244380
  O          -1.71774696241949     -2.77746698076929      0.08988911152475
  C           0.20653509865535      0.30819195901933      0.09313581448141
  C          -0.08630234052317     -1.06863366360678      0.10846566640241
  C          -2.28880811270592      0.78195894294614     -0.03154891291850
  C          -2.57746424559437     -0.58550392357458     -0.02507932321081
  C           1.56823618069932      0.69162914564857      0.11332080487611
  C           2.59089665203552     -0.27289635280006      0.17746428142819
  C          -0.88642286406563      1.30362843467129      0.05770976313766
  C          -1.48856258272960     -1.58019578235738      0.06290206443613
  C           0.91614900050944     -2.01987544748196      0.15460508841568
  C           2.24495962885796     -1.62146673138458      0.19592416136730
  C           4.03140937129788      0.13642610757950      0.30382129393481
  C          -3.33343910596037      1.70080988826197     -0.11277062180511
  C          -3.90038464195062     -1.02328236646399     -0.09917031553804
  C          -4.64517828344608      1.26168545153489     -0.19049762570475
  C          -4.93084338333793     -0.10323135164492     -0.18321903346738
  C           5.65332614749383      1.67110860855673     -0.49760563487982
  H           2.83558535058589      2.05926995623169     -0.16802996458325
  H           2.88250544607358     -3.42178662923567      0.26493721431133
  H           0.63896849760249     -3.06632962429079      0.16518886700255
  H           4.68683086190562     -0.71182181698585      0.10056057166536
  H           4.23559973800416      0.48217944114900      1.32834150713957
  H          -3.08978820222787      2.75393426079760     -0.11249953472805
  H          -4.09248099133158     -2.08723011663827     -0.08937285197199
  H          -5.45102428404027      1.98167265045541     -0.25616971883136
  H          -5.95691366270360     -0.44278835531748     -0.24264724704750
  H           5.85724186016348      2.05210154458250      0.50963610974833
  H           6.36495800908330      0.87069213119179     -0.72600638447962
  H           5.77050715628368      2.47566396961253     -1.22060780528064
