26
Coordinates from ORCA-job 150736 E -763.343868606671
  O          -0.68310636389729     -1.40427698845367      0.80208290927597
  O           1.66599678777551      1.13501476443097     -0.28094928073933
  O          -1.58470498551418      0.09464454694302     -1.41660771621633
  O          -3.67918557157847      1.56110638602173     -0.04740425783182
  O           2.46377278610511     -1.70148391107356     -0.85597163223616
  O           0.28567775305327     -3.34088909068939      0.12618798138771
  C          -0.36342265504641     -0.00368609861171      0.68774710021843
  C          -1.46677226933337      0.68117562090162     -0.14089465843748
  C           0.99749271313221      0.02022370865678      0.04295789672657
  C          -2.78070337289643      0.69746347303536      0.62866248347571
  C           1.35726040039387     -1.23705073628023     -0.24589304962095
  C           0.31137062537317     -2.14107727524582      0.21513523317452
  C           1.61684328054792      2.23798263938781      0.64325251297420
  C           2.47722901963881      3.34330196262900      0.07932050846450
  H          -1.90668421979019     -0.80908921367522     -1.30935525838564
  H          -4.56753470688512      1.42169518642930      0.29478289243010
  H           2.37700861406726     -2.66625735799778     -0.90395501168345
  H          -0.35033653140991      0.41059176809547      1.69999225935257
  H          -1.16799713977415      1.71604639691226     -0.32248668896657
  H          -2.59260905616931      1.05138608590299      1.65158617931389
  H          -3.17257434225162     -0.32447964585827      0.69470996548463
  H           0.58420512049360      2.57553765518588      0.76753268215699
  H           1.98918435232553      1.89858712364107      1.61500142266934
  H           2.47119606274870      4.19991426124917      0.75552778839352
  H           3.50570980529608      3.00329633068682     -0.04377600885722
  H           2.09955789359539      3.66478640777639     -0.89181125252370
