38
Coordinates from ORCA-job 15100720 E -1182.668117058649
  O           0.50264462464438     -0.32946648702541     -0.14912347071773
  O          -1.27967731265007     -2.32675407720543      0.09636803595157
  O          -4.03983286635136     -1.68257842740103      0.26528591765091
  O          -3.08412114133743      2.90217548558708     -0.16949886308912
  O          -4.83670243966779      0.88956944765598      0.07792965909902
  O          -0.44684695793763      3.62362638207576     -0.42328016907644
  O           2.45288450178434     -1.17044629419894      1.69683056855241
  C          -1.22623281773395      1.37497689157571     -0.17666082892037
  C          -0.81180257489133      0.03461301957122     -0.09621977307696
  C          -1.70733172208273     -1.02766961587278      0.04406709224966
  C           1.46131858415547      0.61898623335808     -0.25540330590893
  C          -2.60699044780090      1.64083734576447     -0.10665119596524
  C          -0.19990955978219      2.43116615485872     -0.32614117068839
  C          -3.06583250359666     -0.73363192895704      0.09247430021383
  C          -3.50298225538118      0.58589283751560      0.02044272739892
  C           1.16819470920210      1.92789741189649     -0.34132993852442
  C           2.82313524981196      0.06238213663673     -0.29902260681519
  C           3.28954912831754     -0.83221165881831      0.67425514071346
  C           3.69448509519288      0.45109725503398     -1.31705143996666
  C           4.58965693384544     -1.32294429830487      0.60568474080957
  C           4.99222907408911     -0.03326745573252     -1.38548772494172
  C           5.43653877245484     -0.92675406680106     -0.41938031822266
  C          -0.75738023800927     -2.72881267497831      1.36926233555428
  C          -4.14770738431799     -2.66735659385063     -0.77696511772667
  H          -4.04752122869964      2.85579067243346     -0.08964826033668
  H          -5.31141554826557      0.06110483804349      0.23745479090281
  H           2.93117872673070     -1.71654557284117      2.33092851648639
  H           1.96355502893175      2.65511312131145     -0.40829443888651
  H           3.32945179541810      1.13645959415681     -2.07037905178014
  H           4.93911198297228     -2.01150791122843      1.36740678179539
  H           5.64623074273065      0.27775342995575     -2.18846063618899
  H           6.44480895452180     -1.31805265517540     -0.45873208678280
  H          -1.51547678029685     -2.60484880021716      2.14737846425970
  H          -0.50232301868847     -3.78268318389765      1.27242668327617
  H           0.13574849513807     -2.15470972477978      1.61808693730524
  H          -4.99629723823738     -3.29331992723287     -0.50982992000711
  H          -4.33494815169872     -2.17980148347627     -1.73704687587934
  H          -3.23970821251428     -3.26425041943569     -0.83564749871724
