20
Coordinates from ORCA-job 15100 E -366.170964791946
  N           0.64914196995929     -1.01952172411721      0.02878026831443
  C          -1.15719335293816      0.56370202173428     -0.00703595534186
  C          -0.65544302620509     -0.74870508999685      0.04257106100460
  C           1.53632611622280     -0.02040016215471     -0.03438714905209
  C          -0.22832919502693      1.59200034836640     -0.07235206951658
  C           1.12975489921952      1.30750318053652     -0.08660996036832
  C          -2.63377071284245      0.83925274207571      0.00999934187673
  C          -1.58482196689567     -1.92720454020842      0.11470706831421
  C           2.98650644995418     -0.41112901078111     -0.04570327772652
  H          -0.56839486025904      2.62064823468392     -0.11227007975247
  H           1.86158251892869      2.10311198445832     -0.13742012481882
  H          -3.10518569120377      0.44812753791585      0.91547517121078
  H          -2.83021555136943      1.91058797610718     -0.03438125436787
  H          -3.14017163941488      0.36910141617944     -0.83712593977102
  H          -2.21960484773125     -1.87937836328293      1.00390610391409
  H          -2.25401903253569     -1.95952888094580     -0.74960923736252
  H          -1.00365768182827     -2.84570741054799      0.14528128267447
  H           3.23176998718568     -0.97942287166423      0.85378042053572
  H           3.19710764478275     -1.05741027051203     -0.90020281833645
  H           3.63770597199771      0.46139088215365     -0.09737785143050
