22
Coordinates from ORCA-job 151138 E -499.611222891220
  O          -2.96708224277372      0.18106442420317     -0.91201045987508
  O           2.59228860317927      0.76896140899376     -0.72259121242724
  O           1.75859085284658     -1.26523547000557     -0.93301029652134
  C           0.89847917049240      0.06804469124644      0.89789831813590
  C           0.12527426327875      1.39744425465548      0.79464609685510
  C          -0.06843977985146     -1.08457159656571      1.19312458312845
  C          -1.96252729517102      0.18959566794676      0.09941372954307
  C          -1.00233349879451      1.32174099987400     -0.23409389289584
  C          -1.22441004253862     -1.14224268760335      0.18997428964139
  C           1.75483351111998     -0.22845423800046     -0.33339480643382
  H          -3.53255012433853     -0.58764354867381     -0.77852939645806
  H           2.47937365428542      1.54503116020794     -0.15933916052553
  H           1.61180499711446      0.14929537412077      1.72725065904357
  H          -0.29237671655141      1.61725618859506      1.78136668981143
  H           0.78503061794894      2.23887163714135      0.56324774107083
  H           0.47331050569899     -2.02966027385617      1.18813648235235
  H          -0.46416960451266     -0.94168272520833      2.20328868100600
  H          -2.42664117077447      0.40617476599227      1.07457902262202
  H          -1.55107611809541      2.26456724968094     -0.27079829353273
  H          -0.59628447774754      1.14716396474200     -1.23511876691610
  H          -0.84211864814896     -1.39836926065747     -0.79985359513918
  H          -1.92275745666649     -1.93253798682907      0.48375258751481
