86
Coordinates from ORCA-job 151202 E -1550.211030307002
  O           6.45275390807556     -0.26630823990338      0.07749626174995
  O          -4.09650637849135      2.83475453866102      1.62609486824569
  O          -3.74673209728370      0.93498747198742      2.68012576766512
  O           6.82665966017798     -2.47952665208098     -0.15564805069249
  C          -0.15893294682240      0.69666916392421     -0.44223220177449
  C           0.73633865024992     -0.25300182933910      0.41310300927586
  C           2.19872932966114      0.23275017392170      0.72014722983208
  C          -1.46602700261758     -0.10779839086828     -0.86432598564241
  C           2.85094160363677      0.55392296666865     -0.65717922697401
  C           0.63686218889752      1.13498577177888     -1.68735897952889
  C           2.04864205889265      1.63268820261069     -1.38409293669210
  C          -2.15746944520912     -0.63969632929475      0.38433880553035
  C           4.39589172658954      0.77081783484291     -0.68012194379622
  C          -3.66917542146855     -0.68837009976680      0.41430535334199
  C           0.00099931040637     -0.76545363127858      1.65667105883215
  C           2.96052617221759     -0.95934239788462      1.34064951094622
  C          -2.46974113881526      0.76175482473989     -1.67780430510530
  C          -4.21418458920378      0.75994579150782      0.29658252433126
  C          -0.57264889296800      1.95655223780779      0.33537555403785
  C          -3.57088596053902      1.51022069054420     -0.90905827808319
  C           5.01657756940179     -0.46250956929593     -0.00007494661561
  C          -1.46782100239494     -0.95887360647772      1.47433824931303
  C           2.25583575594796      1.40794585693329      1.71938698230341
  C           4.47213740584353     -0.75433371649750      1.38472348001568
  C          -1.12023885234123     -1.31226797077516     -1.77635019567295
  C          -4.29940021067124     -1.65675758092035     -0.60090598216033
  C          -5.76624421397155      0.76039752400346      0.18540413410350
  C          -5.83598566759895     -1.66049738283379     -0.61399873274066
  C           4.88135177784875      0.78103451293898     -2.14088676225948
  C           4.86114553831824      2.07838569346515     -0.02322199759268
  C          -6.29879214916875     -0.21538910901138     -0.85592420229008
  C          -3.95894070343841      1.48134479829528      1.63488146091420
  C          -6.32091997651702     -2.54242108695741     -1.76866151795916
  C          -6.40492330250555     -2.21637031786219      0.69833847476774
  C           7.23842357216997     -1.35581851823586     -0.01093882029601
  C           8.69107874602446     -0.97438663602108      0.09372021475444
  H          -4.27034656603829      3.15433338132135      0.73207731707265
  H           0.90538335507585     -1.12631057119765     -0.21834698378346
  H           2.70903975621355     -0.36492107017877     -1.24294399712933
  H           0.73436072606262      0.29623297977312     -2.37798987278372
  H           0.08812589412380      1.91413227841352     -2.22151945086280
  H           2.01623560647875      2.55341286639664     -0.79931206940014
  H           2.52714454574010      1.89350115445487     -2.32817593189216
  H          -3.94731704100418     -1.03680932865362      1.40720424676438
  H           0.45086788966663     -1.70513222686804      1.98877177386156
  H           0.12976711438417     -0.07924531551772      2.50078214810457
  H           2.59674733663851     -1.15300117984343      2.35099834221104
  H           2.74757270582045     -1.85945631184509      0.75403805254368
  H          -1.92211593384629      1.48694419261680     -2.27976578375857
  H          -2.95695971811925      0.10981634344901     -2.40166373957736
  H          -1.16176890131592      1.72131227093846      1.21974343221881
  H           0.28802680470787      2.53091236873476      0.65920271119154
  H          -1.16028218178529      2.61677359887408     -0.30105903191015
  H          -3.15774848771484      2.46053369130833     -0.57365492580908
  H          -4.35365321257195      1.76464022841341     -1.62705747752118
  H           4.84165721120452     -1.33269399424095     -0.63550000831039
  H          -2.00911984576336     -1.30436864688551      2.34850481762487
  H           1.42909142929279      1.36738403957719      2.42564995110768
  H           3.16971759150573      1.37905914418639      2.30882608877377
  H           2.22409089915208      2.38137879994111      1.23763733682757
  H           4.74243476493516      0.05916524379825      2.06064644749026
  H           4.95384040440910     -1.65557593953879      1.76762252852732
  H          -0.34674175133541     -1.94736224740889     -1.35141218774361
  H          -1.99889439246215     -1.93777256716304     -1.91454159378303
  H          -0.79511171752945     -0.98610762649580     -2.76533439681371
  H          -3.97202476100985     -1.42543968838054     -1.61356052139264
  H          -3.92904065965372     -2.66194961410738     -0.38036935264926
  H          -6.18877517720491      0.51298244008499      1.16125508243682
  H          -6.10854915483593      1.77304006180321     -0.04675836080125
  H           5.96997196233645      0.73113070696231     -2.17308793283167
  H           4.48500890606383     -0.07284410863010     -2.69543501102745
  H           4.58249091260577      1.69169098767495     -2.65904475129614
  H           4.71211058919048      2.09271424282010      1.05277327934508
  H           5.92415175901990      2.22873356104850     -0.20998407364171
  H           4.32533195223539      2.92881189915350     -0.44644659681467
  H          -7.39176264809410     -0.16967218489064     -0.86429583213776
  H          -5.96967682287806      0.09133196065602     -1.85467892737872
  H          -5.97412871038991     -3.57124413381847     -1.64639804744516
  H          -7.41255679537280     -2.56031145788213     -1.81617601521644
  H          -5.94823680782951     -2.17418075963938     -2.72766340859568
  H          -6.07687931581745     -1.65631891310209      1.57318231318763
  H          -7.49734120613239     -2.19809137024089      0.68198105710731
  H          -6.09063859798472     -3.25323424590530      0.83694786052966
  H           8.87607477541337     -0.48277873400299      1.04998873642137
  H           9.30851052957640     -1.86417317534639      0.00784797998950
  H           8.94744596250318     -0.26373501994377     -0.69333309511433
