44
Coordinates from ORCA-job 152430 E -1261.248764826647
  O          -0.03319495286677      0.13130378157627     -0.10539388360263
  O          -5.52211548561406      0.15592863302948      0.12619841864881
  O          -4.02832641885962      2.58322007652885     -0.02005138496229
  O          -4.24477803469826     -2.17182691225785      0.18310120114253
  O          -1.83437251261065     -3.50959579874498      0.13847882181583
  O           4.41980634461693      2.09576653252401      0.28006701624130
  O           6.25205570120322     -0.01345472763040     -0.26497700115853
  C          -2.08900966723885     -1.13318851503229      0.05158345917037
  C          -1.39604849455585      0.08193777162593     -0.03423387202814
  C           0.70290288277688     -1.00898055814250     -0.07442800613047
  C           2.14503666107082     -0.74349899062600     -0.13876963889881
  C          -3.49578346230007     -1.05820326587080      0.10710019471406
  C          -1.32678881181496     -2.39937821501844      0.07374989542900
  C          -2.02705125665736      1.31773032986261     -0.04426840147630
  C           0.11669433123787     -2.21848012407094      0.01840519504110
  C          -4.14313044522034      0.17811871925507      0.07458419638700
  C          -3.40864498281963      1.36548818838254      0.02183827118900
  C           2.63517887424703      0.54647408404252      0.07910410230917
  C           3.05570244506371     -1.76539754302169     -0.42251168568476
  C           3.99449730748768      0.81365595642679      0.03888168224992
  C           4.90200188999135     -0.22625253343317     -0.20534770599554
  C           4.41432678380119     -1.50591709474339     -0.44946804328741
  C          -6.16797248698590      0.54207225347671     -1.09831630343360
  C          -4.75103326882707      2.94685740789809      1.16318243485097
  C           4.97995791906886      2.76627506474943     -0.85400183935528
  C           6.86992284162683      0.37747981039199      0.96725842206531
  H          -5.16583584687575     -1.87499409215472      0.26279035031255
  H          -1.45142761224685      2.22980664904533     -0.09767762026145
  H           0.71513725162749     -3.11461230491930      0.06790181638958
  H           1.96163645279659      1.36524914259335      0.28364878883081
  H           2.70547065096669     -2.76623391425807     -0.62961338606932
  H           5.12681222052934     -2.29197558733951     -0.66157186616982
  H          -7.23674442128628      0.43038103725736     -0.92795545098597
  H          -5.93434817754071      1.57814270654676     -1.34490963469424
  H          -5.85238511433637     -0.10984450131225     -1.91658839072774
  H          -5.54951853593445      2.23528719959389      1.37619579762900
  H          -4.07025689262708      3.00139627833207      2.01674093551146
  H          -5.17089625645766      3.93117827232934      0.96849181824828
  H           5.26759622637468      3.75759984584645     -0.51008588248607
  H           5.85446573798017      2.23654852346867     -1.23550618497111
  H           4.23242218173205      2.85701307076596     -1.64703709309119
  H           6.45261255887342      1.31279030302141      1.34171554309561
  H           6.74206146768864     -0.40753569048466      1.71755367436572
  H           7.92808540761307      0.50207273049011      0.74793523983328
