15
Coordinates from ORCA-job 15246 E -556.572757824406
  S           0.78997166776480     -0.92680741811089     -0.27989346705420
  C          -0.57194195578225      0.13554369157310      0.33876742352383
  C          -0.64151882575816      1.47930272097944     -0.37701116872529
  C          -1.86768012084703     -0.65534290533875      0.18599247059141
  C           2.24014616152902      0.03395051222025      0.22837110271014
  H          -0.37735602467625      0.29867354900906      1.40275868978621
  H          -1.45850993156600      2.08151108822078      0.03087660762370
  H           0.27941038839704      2.05112838458340     -0.26052189068698
  H          -0.81957527453182      1.33493814460203     -1.44426054015221
  H          -1.82442858840388     -1.59886641969121      0.73091139695668
  H          -2.70852432540442     -0.07332387523017      0.56955956878244
  H          -2.06458822251091     -0.87638879158052     -0.86556717562324
  H           2.21799289856028      0.23315206165292      1.30063365845491
  H           3.11362516590123     -0.57726186477990      0.00463479905806
  H           2.32162898732834      0.97190512189046     -0.31968747524546
