37
Coordinates from ORCA-job 153441 E -1107.438978175443
  O           0.94642672512052      0.43720998488764     -0.07598703589666
  O          -4.45062959632366     -0.58136695734583     -0.26108067540581
  O          -3.43976218851731      2.11549254071904     -0.22811976351685
  O          -2.78237859451926     -2.61331577898922     -0.09006855014430
  O          -0.70668045224852      2.49507973197518     -0.22625134684236
  O          -0.17644010880673     -3.46613894831384      0.12237185179551
  C          -0.86088463885385     -1.17965201295755     -0.03355167474786
  C          -0.38095689459699      0.13739794784834     -0.07715326290530
  C          -2.25276747611382     -1.37349500236661     -0.08057856998471
  C          -1.23267365014761      1.23576350904423     -0.14430316652618
  C           1.87397176391323     -0.54843499874710     -0.00867093400520
  C          -3.11736264209707     -0.27626946212880     -0.13185454593341
  C          -2.60748262985636      1.02323939757427     -0.14068019365205
  C           0.12258816470230     -2.28347999175801      0.05385976975549
  C           1.51069327907937     -1.84416823219175      0.06159517125837
  C           3.24460116118015     -0.01785590581805     -0.01085088117290
  C           4.34712921834036     -0.87066389994262     -0.13086678624222
  C           3.46732894651744      1.35787265186618      0.10909764355087
  C           5.63546688969098     -0.36220910785375     -0.12215589678175
  C           4.76003366981458      1.86251093154299      0.11790672237144
  C           5.84827805729994      1.00697326121311      0.00407195239682
  C          -5.35982873327080     -0.05612198452793      0.70868748930659
  C          -3.57597441210444      2.85936794514470      0.99444399740401
  H          -3.74143884240992     -2.49644082178225     -0.17808269843595
  H          -1.38470863107180      3.06792895701679     -0.60882240334686
  H           2.25527264607795     -2.62088399979982      0.13574988648462
  H           4.20018629797639     -1.93541564133152     -0.24354834648276
  H           2.62374318562828      2.02651904345575      0.19631624652860
  H           6.47686540431420     -1.03603073669600     -0.21888024001955
  H           4.91602488340433      2.92931861544661      0.21388196206025
  H           6.85584964995450      1.40230849707885      0.00971217317919
  H          -4.94552740076455     -0.14828855280888      1.71604423073884
  H          -5.59477463983152      0.98559105840857      0.49374531501314
  H          -6.26558004992111     -0.65490479316880      0.63329770459583
  H          -4.05943344254479      2.25205323814061      1.76198943251044
  H          -2.60563688395034      3.19431504878674      1.36542269448141
  H          -4.20027203506408      3.71873846837875      0.75919272861127
