45
Coordinates from ORCA-job 153984 E -1187.274747373516
  O           1.98235200051456      0.51362890684390     -0.47241245287459
  O           0.04390448238458     -1.67843383703335     -0.79660448046204
  O          -2.03354399028491     -2.22676993144843     -2.26643065059323
  O          -2.82967588124886      1.14927538389628      2.64780524343790
  O          -5.06830643843958      0.57349742704068      1.39831302757155
  O           1.66965881861938      2.70693631192682     -0.04632414732595
  C           1.49019788420818      0.16008644792497      0.83867670851247
  C          -0.01146562254421      0.03867038438398      0.80423229279217
  C           2.22282853972558     -1.11569796928838      1.27031988595083
  C          -2.12932912387613     -0.85767837101013     -0.29968769195461
  C          -0.64462886930714     -0.90232827950735     -0.16100157449473
  C          -2.91317276762162     -0.13227419783292      0.63453362344114
  C          -0.76979008579794      0.73077583077287      1.65796080208157
  C          -2.23653874935645      0.61997828136915      1.72469055937855
  C           3.68980816502013     -0.87153346466934      1.46248994460415
  C          -2.75994012599454     -1.54225484449562     -1.34961516537350
  C          -4.30954442378263     -0.11401528262404      0.51232021197389
  C           4.66371032009818     -1.12262042671494      0.58541498128087
  C          -4.15180203780034     -1.49808872908921     -1.45512326617642
  C          -4.91068571100087     -0.80241101749023     -0.54336114960458
  C           2.03560673652614      1.82489895467895     -0.78110718735181
  C           2.61815749311397      2.01451483167680     -2.16129453122226
  C           6.09658444232060     -0.80475215972350      0.91062641187178
  C           4.44590633706489     -1.72253554170894     -0.77423389219380
  C           2.66987199314581      3.47185626888931     -2.59517148983957
  H          -2.63101073696143     -2.58959853790965     -2.93118823522628
  H          -5.99483158861022      0.50693813141505      1.13821614984324
  H           1.74085005616334      0.97475401630537      1.51788931273250
  H           1.77526267310651     -1.43825657464994      2.21475167119753
  H           2.02378606992140     -1.89288173594272      0.53822491103475
  H          -0.33403442540518      1.40624656427781      2.38462852280528
  H           3.96795074906372     -0.41344547535989      2.40842609936881
  H          -4.63846885953017     -2.02388289938174     -2.26928475164334
  H          -5.99033603745452     -0.78484128540081     -0.64352377358413
  H           3.61414958043411      1.56252522250780     -2.15555355811017
  H           2.02682252029158      1.40745339661812     -2.85200237091968
  H           6.20072760793485     -0.37238444527226      1.90584964433150
  H           6.71673552556740     -1.70553846490678      0.86006527633954
  H           6.51308163853623     -0.09945715185957      0.18410059129358
  H           3.40103227718152     -1.92632083401549     -0.99166089702678
  H           4.81816323411482     -1.04244462624015     -1.54707242855956
  H           5.01531146930482     -2.65176380144428     -0.87810407581981
  H           3.27298545365625      4.06393113352782     -1.90686246858214
  H           3.10238814001843      3.55538831494218     -3.59319798952257
  H           1.67194026697970      3.91036107602179     -2.61449364338204
