17
Coordinates from ORCA-job 15395 E -309.812815446943
  O           0.67313006211869      1.36986930102387     -0.13386908219317
  C          -1.96685276484343      0.37930008313313     -0.06401597198491
  C          -0.75960457154887     -0.54214094147785      0.02267090816872
  C          -3.28771430504433     -0.38296651327046     -0.00444169713820
  C           0.57889988623829      0.16481605215936     -0.03098434137541
  C           1.78037150334607     -0.71849317781193      0.05139694321749
  C           3.01472358687300     -0.22740027075027      0.01510484695431
  H          -1.91573331024104      1.10986787486454      0.74633638016169
  H          -1.90673553902955      0.95860265365911     -0.98805038476547
  H          -0.78291410947540     -1.13441638417615      0.94686513051564
  H          -0.77327307283088     -1.28499877715736     -0.78564715248785
  H          -3.38114511744746     -0.94363655202315      0.92936607752460
  H          -4.13864424447186      0.29742693606319     -0.06869947217304
  H          -3.37153153512770     -1.09755294414373     -0.82749868895315
  H           1.60718118164547     -1.78560600759189      0.14271268278657
  H           3.88613736649360     -0.86636109337943      0.07465496327524
  H           3.17089698334542      0.84086976087902     -0.07643414153306
