44
Coordinates from ORCA-job 154417 E -941.954807450066
  O           0.02555077698260      0.38655494209822      0.05822703225085
  O           0.15650912438832      2.58497999738324     -0.39998313103558
  O           3.11160559284606      1.85581291742669     -1.90891028214077
  N          -3.75683493383230     -1.03881892460604      0.62209255596524
  C          -3.67924722240686      0.42264824729792      0.78342203175694
  C          -3.26171247244152     -1.21376046806975     -0.75320964444971
  C          -4.25253345139248      1.00635060714761     -0.53859849362078
  C          -3.97033247514152     -0.10490518704623     -1.58108676758292
  C          -2.20391249326560      0.78775014939204      0.97944801085662
  C          -1.74066221431023     -1.02745151806160     -0.72225424816112
  C          -1.39251017801412      0.37650905773042     -0.24611607391931
  C          -5.09314107553122     -1.57552571880695      0.82986758643762
  C           0.67596124156194      1.54964558047078     -0.06493646186079
  C           2.14779682413984      1.45242186395628      0.33179145584418
  C           2.73365850208093      0.06688066878254      0.45039768937962
  C           2.99803649042617      2.35333325097465     -0.58778998758209
  C           3.49537998358641     -0.26486560761687      1.56967940485602
  C           2.60420638116897     -0.88097498577040     -0.56794036390391
  C           4.11333756741314     -1.50484321666368      1.67576819814646
  C           3.22359574569509     -2.11999462717738     -0.46680538052911
  C           3.98122321398308     -2.43701096842032      0.65469302552554
  H           3.62074801497003      1.03676955028239     -1.88268676843542
  H          -4.25226135173018      0.73157359828982      1.65792117374480
  H          -3.49987683023433     -2.21607110798593     -1.10985965913835
  H          -5.32244077137323      1.19047595842897     -0.44394782044300
  H          -3.78602047049688      1.95672851764094     -0.79849063376012
  H          -3.35287047466898      0.24242305858448     -2.41001834593433
  H          -4.89770962240316     -0.48254720383944     -2.01114995133193
  H          -2.08782719200463      1.85909300384354      1.15123950546787
  H          -1.82605458593768      0.25236080767651      1.85254307441983
  H          -1.31228550309436     -1.75835306436660     -0.03461791034348
  H          -1.30970407843313     -1.19826930686155     -1.71172058771946
  H          -1.55072891396157      1.09944817459942     -1.04503865370574
  H          -5.39715673192674     -1.39206146453314      1.86150055505870
  H          -5.86503070965071     -1.15100824295412      0.16907937691606
  H          -5.07475667719943     -2.65521415506394      0.67374530883497
  H           2.18372610271363      1.92137532748758      1.32187074603273
  H           3.98458752990347      2.48180899285341     -0.12954757128260
  H           2.51606261894266      3.32549824116225     -0.66824350366147
  H           3.60357325354194      0.45676059076877      2.37110807439160
  H           1.99376848874604     -0.65756630945640     -1.43183155177366
  H           4.69536619218239     -1.74215615022465      2.55722322943683
  H           3.10662203992993     -2.84328857979484     -1.26395550808439
  H           4.45909874424821     -3.40493629695870      0.73422626507755
