49
Coordinates from ORCA-job 1548943 E -982.461024476493
  O          -3.29187452252590     -1.15361764594327     -1.53574144103471
  O           0.80401361091991      1.89049481097080     -1.14652710619805
  O           1.50199826881142      3.04710319112545      1.10451236595837
  N          -3.38475302265863     -0.96376134580916      0.72236508686094
  C          -0.27651189060630     -2.47078806970571     -0.34077333213103
  C          -1.36302557342401     -3.24218952026208      0.40374596210990
  C           1.11650615313985     -2.66340617605652      0.26407156694449
  C          -2.75263641360495     -3.10739649904851     -0.23795520035889
  C           4.14424666263159     -0.35543123200959     -0.68761927228891
  C           2.18770746872568     -1.92819233420006     -0.48257663655146
  C          -3.17177758537012     -1.65885472837743     -0.43026237879636
  C           3.03436221761645     -1.05261433503417      0.04676827782137
  C          -3.54318843138097      0.48822048046202      0.73696918751447
  C          -2.22633681807848      1.21430897469084      0.85732701728422
  C           5.50011664219792     -0.97047165939868     -0.31036076418307
  C           4.13761970024386      1.15090801701941     -0.40819393257171
  C          -1.34869866951189      1.23222207351074     -0.23350365723389
  C          -1.84327503456313      1.82343971185293      2.04029667533602
  C          -0.10507509618930      1.83725301424014     -0.14251622203101
  C          -0.59856873139105      2.44483083177657      2.13866004528840
  C           0.27284184896432      2.45706595676643      1.06450886874923
  C           0.51810848183040      1.18038290475177     -2.34164806046128
  H           1.63651195063698      3.43527101790568      1.97618091530603
  H          -3.10793994425672     -1.40103903576795      1.58626093712523
  H          -0.26736432942797     -2.78093287000120     -1.39104261617645
  H          -0.51742882899159     -1.40557077918099     -0.33812530814944
  H          -1.10213862379332     -4.30386900021384      0.44455009010304
  H          -1.39392001945882     -2.90206891287357      1.44483620442419
  H           1.11271201306538     -2.34054745570488      1.30960322542549
  H           1.34874519352634     -3.73622387725484      0.26979467907831
  H          -2.75505846830538     -3.56148429891332     -1.22817582438121
  H          -3.49635560267434     -3.62765054898875      0.37218300932885
  H           3.98867260373862     -0.51283556067662     -1.76068284568538
  H           2.26447150411438     -2.15158660052992     -1.54614214190688
  H           2.96004155334382     -0.82693054513951      1.11036798455248
  H          -4.04919185346370      0.75304649625130     -0.19006112118599
  H          -4.19671101062032      0.75351988031363      1.56898878057951
  H           5.68463382653084     -0.86661311418532      0.76251961383381
  H           5.53289282935303     -2.03346515016395     -0.55471437725957
  H           6.31431366210673     -0.46836111498529     -0.83863500126735
  H           4.31348087403547      1.34207687861647      0.65431100449258
  H           4.93085176081436      1.65006295457930     -0.96999235246019
  H           3.18334178777825      1.60644695944551     -0.66696750538749
  H          -1.65879541747172      0.75630940051068     -1.15183929817075
  H          -2.50969303772719      1.82423200432334      2.89417653727616
  H          -0.30208842931108      2.92573152590321      3.06483236406328
  H          -0.36722706385117      1.58207678023061     -2.84201934927942
  H           1.38808133869834      1.31348010560490     -2.98014111581045
  H           0.37140446583409      0.11661643957343     -2.14150953849544
