24
Coordinates from ORCA-job 15504 E -314.427372884577
  C          -0.59047168019521     -0.22625396605543     -0.24344294733749
  C          -0.10463673984675      1.10731920197845      0.33788677944918
  C           0.39506155050493     -1.34545943907070      0.11333108189813
  C           1.32736239083383      1.43801381896223     -0.08807495695149
  C           1.82725114541130     -1.02282539541933     -0.31473773077359
  C           2.29640954437981      0.31049120212033      0.26875213336236
  C          -2.01109221189130     -0.58486743653206      0.20355986456028
  C          -3.09429008644829      0.38112605997112     -0.27215945723886
  H          -0.59894892498583     -0.12793068467712     -1.33833509544041
  H          -0.77288332104991      1.91798107184658      0.03974048990386
  H          -0.15288319419106      1.04927330318567      1.43271878426212
  H           0.36971723891221     -1.50293826007626      1.19878655061703
  H           0.06683810652381     -2.28371315693094     -0.34349835096718
  H           1.34998580167809      1.60103324812526     -1.17179800894338
  H           1.64859639874099      2.37536809358900      0.37387995106499
  H           2.50125859442016     -1.82862505200560     -0.01204256630893
  H           1.87291260250363     -0.97210253729927     -1.40874640959193
  H           3.30300261177411      0.54792914071279     -0.08558743638220
  H           2.36049373833509      0.22299433565788      1.35961553056492
  H          -2.24485099326148     -1.58971942407665     -0.16307606355957
  H          -2.03098930044102     -0.64935135738625      1.29750387293279
  H          -2.96532273590093      1.37878378116848      0.15050584493861
  H          -3.08110624281666      0.47801366864133     -1.36107451773845
  H          -4.08656529298952      0.02940578357049      0.01718165767923
