38
Coordinates from ORCA-job 155011 E -1182.696835106959
  O          -2.63250195619642      2.30714183846296      0.31769577497402
  O          -0.06394027003475      2.24329731197532     -0.65577043453018
  O          -0.06974020124497     -3.04586300905944     -0.55958884765228
  O           2.49582935467527      2.31312052674543      0.21631629435198
  O           4.78639892948304      0.87474759080839      0.39570547879032
  O          -4.89879556810654      0.93192460865981      0.31794241707511
  O           4.71114936683005     -1.87498919012512      0.28684186199709
  C          -1.34770618434405      0.31696230669479     -0.14688573267061
  C          -1.34279262155443     -1.08381194137650     -0.25258824741057
  C           1.18481802819355      0.31811906453815     -0.10787055005547
  C           1.19292669852683     -1.08766374786004     -0.17435117934837
  C          -0.07159498146277      1.07654916638880     -0.31277997591715
  C          -0.07949024982354     -1.84132294425097     -0.36616539093391
  C          -2.56423111022721      0.97643733901074      0.05866531376942
  C          -2.53643642469291     -1.79529596181312     -0.22072448630996
  C          -3.75419852959747     -1.15908716968480     -0.04844002462780
  C           2.41212685337578      0.97260273161037      0.09241244088975
  C          -3.75404731605310      0.23168124493525      0.10641811182710
  C           2.35916782179535     -1.82740226690667     -0.05291455076283
  C           3.58377922939093      0.22114046624741      0.19206209679894
  C           3.56373813977931     -1.16918313280818      0.14441739135927
  C          -5.04571348427125     -1.92675144627519      0.00033205016478
  C          -2.99219222810466      3.14416423323094     -0.78589090439783
  C           5.45385471297472      1.23815780692268     -0.83062149801454
  H           3.38903935156703      2.51450007586776      0.53379262592485
  H          -5.64932114172269      0.32812057468806      0.34417292368649
  H           5.40625393762908     -1.26145593446851      0.56542855250502
  H          -2.49004468130411     -2.87115199726974     -0.32290036954266
  H           2.31998028137879     -2.90536571730655     -0.10655484076403
  H          -5.55814307010071     -1.80115545511898      0.96033129996835
  H          -5.73602765829019     -1.61208279848378     -0.78942822876843
  H          -4.86336969857783     -2.99152072055783     -0.13225876481687
  H          -3.05193331060795      4.15481272629422     -0.38840535907944
  H          -2.22005864284959      3.09889239365902     -1.55426738838972
  H          -3.96375569480143      2.85262497830475     -1.19137300826697
  H           6.37204561892735      1.74491259349398     -0.54176126052565
  H           5.68719188132381      0.34773863470739     -1.41815470926587
  H           4.82834181811767      1.90713922011918     -1.42491688203133
