30
Coordinates from ORCA-job 15506 E -393.034761277676
  C           0.43842665552973     -0.26600267121701     -0.23386119560206
  C           0.84223631979978      1.08446331846350      0.37118474074140
  C           1.50509492870013     -1.32224708351790      0.07986138894284
  C           2.24052430368191      1.52257481613019     -0.06940306442122
  C           2.90385164654182     -0.89186690994204     -0.36343305408408
  C          -0.94475451223113     -0.73309593221280      0.22801816202530
  C           3.29078707504281      0.45680474982831      0.24464751882555
  C          -2.10945795720699      0.15396059155901     -0.20688518054754
  C          -3.47274250764352     -0.40811572799156      0.19158588246681
  C          -4.63646272713632      0.48063524038996     -0.23946208043947
  H           0.40423449671605     -0.14392283498182     -1.32566714440653
  H           0.11484766036173      1.85350454222768      0.10298062355159
  H           0.81695825803741      0.99848080215169      1.46495113908943
  H           1.50985788922682     -1.50607845169563      1.16143514190437
  H           1.23374905444687     -2.27010208946935     -0.39410908682836
  H           2.23294895669672      1.71156641431127     -1.14911535207835
  H           2.50470358130214      2.46907375220500      0.40977745192032
  H           3.63689671412450     -1.65601758209649     -0.09149335834959
  H           2.92634223328532     -0.81267636174242     -1.45648350927998
  H          -1.11461301395249     -1.74584205566719     -0.15477232418663
  H          -0.94332347439234     -0.82004235728282      1.32136005768609
  H           4.27236024012467      0.77119463554511     -0.11982466331301
  H           3.37983030517222      0.34876971695820      1.33191175564146
  H          -2.00133536275428      1.15452239764967      0.22234364866470
  H          -2.07756540037089      0.28425281600940     -1.29514122757388
  H          -3.59200206261413     -1.40574304763030     -0.24420162533227
  H          -3.50021328527056     -0.54668212168339      1.27767263116933
  H          -4.55959952444344      1.47396218453263      0.21009242011301
  H          -4.65010301047764      0.61079196241463     -1.32464362300281
  H          -5.59738648029690      0.05505128675449      0.05667592670356
