41
Coordinates from ORCA-job 155248 E -1035.622903776075
  O           2.11583989816344     -0.72466801405250     -0.27960258135222
  O          -2.67901016331690     -1.76383310621462     -1.29077000722343
  O          -2.82640052222922      2.78385728282338     -0.08698862689342
  O           6.72277068278628     -1.95539333101836      0.10062523757781
  C           0.03323234483383      0.48895531001309     -0.27947000855610
  C          -2.76312692655420      0.51477145314814     -0.70463589663634
  C           1.46705822384228      0.47849458504078     -0.06394022605019
  C          -4.25948888488562      0.52337160644151     -0.89944265182783
  C           3.64616652941609      0.81938650898819      0.35669604915736
  C          -2.00664735196062     -0.64157740920390     -0.89226169056329
  C          -2.07535866219743      1.65697213065084     -0.28638656790115
  C          -0.63142655730761     -0.66606156392615     -0.69041972668954
  C          -0.70417526112329      1.65815397525940     -0.07660238382136
  C           3.43474537357926     -0.51416141874160     -0.02385253522369
  C           2.35314813904043      1.43545155302777      0.32072615059568
  C          -4.98405023450191      0.28191654702725      0.39860218744709
  C           4.94668730697753      1.22361948298813      0.66021628612107
  C           4.43410413886406     -1.46178971838957     -0.11910249908253
  C          -5.72305536750847     -0.77505191968664      0.73877074176304
  C           5.71932806319352     -1.03079178459129      0.18918367706189
  C           5.97168698753281      0.29554559790443      0.57393599930197
  C          -6.36986648720708     -0.85401347399347      2.09474592020606
  C          -5.98697584180605     -1.95999428634725     -0.14620292573792
  H          -2.05262883603356     -2.48903505285105     -1.38992971754374
  H          -2.24995303000509      3.50784240941547      0.18009542856268
  H           7.56126453782396     -1.54339566635315      0.33617078340326
  H          -4.55221538998804      1.49972413664324     -1.29190214025473
  H          -4.52637178404107     -0.22194755787340     -1.64418131895480
  H          -0.07435822603126     -1.57966210238704     -0.84996167988678
  H          -0.21234353986410      2.56722195017940      0.24677517501008
  H           2.11798156554649      2.46014460714458      0.55202088280993
  H          -4.85572179925013      1.07094264752320      1.13411725160854
  H           5.15906646431884      2.24191359213963      0.95849925453908
  H           4.24477939690318     -2.48350859654206     -0.41464227498645
  H           6.98850976209799      0.59195806375792      0.80618648635211
  H          -6.15713194488380      0.02976014894029      2.69649454242878
  H          -7.45659997391752     -0.95463225423408      2.00480040346586
  H          -6.01981981723656     -1.73518440804949      2.64270700495460
  H          -5.68528874897586     -2.88238659518960      0.36002110563693
  H          -7.05850086667092     -2.05373920130385     -0.35169149944705
  H          -5.45552619742368     -1.91454712810756     -1.09285460937126
