41
Coordinates from ORCA-job 155380 E -1221.981379579816
  O          -3.00758165853605      2.24933986235862      0.09468483740894
  O          -0.48024917193819      2.21383844520344     -0.98353878884932
  O          -0.17025414661233     -3.02195779112337     -0.30606141591901
  O           4.42886084956265      1.31350968326676      0.08600176012577
  O           2.10120319098689      2.51822912689820     -0.22007716322654
  O           4.57101177945968     -1.53587534629286      0.15614941918578
  O          -5.18842147559808      0.76233865865767      0.34575940198486
  C          -1.62759072224325      0.29182874341809     -0.20634113591063
  C          -1.54438499590102     -1.10970234393608     -0.15880469397356
  C           0.90225690090264      0.43509794004149     -0.27407324481508
  C           0.98502819080277     -0.96604582391456     -0.19043848532141
  C          -0.40636950710961      1.09691090822946     -0.51088289401268
  C          -0.24320573732414     -1.80507561201271     -0.24451260963613
  C          -2.87203665562194      0.90365645185381     -0.02015450506214
  C          -2.69227167857264     -1.87644885277656      0.00289450896174
  C          -3.93776806391774     -1.29153290934995      0.15857787138540
  C           2.09232789056685      1.17355176644502     -0.18542849982026
  C           2.20487416346903     -1.61483688367772     -0.07007434098232
  C          -4.01336491035050      0.10582298763025      0.16114663144691
  C           3.31713784022774      0.51050069471201     -0.01449082086125
  C           3.37890842254478     -0.88155576245475      0.00738052444831
  C          -5.17930874386720     -2.11767879066118      0.34783193222509
  C          -3.45841898980394      2.93760488032441     -1.07644506082730
  C           5.11344026950651      1.25523189631539      1.35013596960821
  C           5.46697334375765     -1.42997765583769     -0.95721263119300
  H           3.03067763602076      2.78818191052783     -0.14500706435722
  H          -5.90098032950879      0.12552639115825      0.46907622892749
  H          -2.58676543870924     -2.95290642547991      0.01655537795923
  H           2.23692277117454     -2.69416964266041     -0.03985441285672
  H          -5.66059567904863     -1.91451865014040      1.31064257755708
  H          -5.91687145584836     -1.92973928313908     -0.43953151082817
  H          -4.94032537775434     -3.17919753684942      0.32295229846315
  H          -3.56343991525781      3.98122752235286     -0.78878551554855
  H          -2.71463695421198      2.84994227153499     -1.86868524008296
  H          -4.42544032340279      2.54946719239688     -1.40432895465517
  H           4.43476155407259      1.53496790478685      2.15921645617359
  H           5.50576352449973      0.25500581743322      1.52994711936508
  H           5.92752199809399      1.97345688731441      1.28506610294518
  H           6.35196656174025     -2.00231634393022     -0.68850354387481
  H           5.00900259944455     -1.86162742608009     -1.85078408555539
  H           5.73989744430490     -0.39128386254298     -1.15118740000218
