38
Coordinates from ORCA-job 155948 E -809.204106860328
  O          -2.51826317509766      1.28107373967251      0.15994673044052
  O          -1.30967828998575      1.30725541754537     -1.81255412194779
  O          -4.24814244279238      0.13970270450805      1.05307789355189
  C           1.27553806812615      0.97881592056971     -0.02656131835018
  C           1.22415624677140     -0.57866828907806      0.08012942913939
  C          -0.11479839423501      1.56360484565784      0.31570673892714
  C           2.29694817257365      1.53251317269516      1.01931365552972
  C          -1.26902315436725      0.93646504994191     -0.46069838878043
  C           0.08623443871875     -1.20545019655036     -0.75048856258034
  C          -1.19371818461824     -0.56321037601593     -0.36980712955481
  C           2.58624070148362     -1.17620666630684     -0.18692048858815
  C           3.22569451136341      0.46930886078687      1.61648221245857
  C           1.72644583568575      1.40356139279967     -1.43322651069931
  C           3.72837798516660     -0.49478591460937      0.54666580401948
  C          -2.30446347868914     -1.02891621190325      0.19960098955153
  C          -3.17221066113117      0.13131370142065      0.52619352770437
  C           2.80442102653979     -2.20682674423014     -0.99754098569918
  C          -2.71847154745103     -2.41535247061439      0.54185683779823
  H          -1.32903526243151      2.27096469795881     -1.86528004568943
  H           0.98443813072099     -0.79804630756903      1.12881642041427
  H          -0.31877600716664      1.39248755594858      1.37462999948713
  H          -0.11394216379589      2.64808139618517      0.16499284503948
  H           2.90302863781129      2.30216400286763      0.53545355702228
  H           1.76431002200949      2.03283173791184      1.83082480699500
  H           0.27736420490504     -1.05404087559711     -1.81604240604776
  H           0.04679006833124     -2.27993634182497     -0.57461860824065
  H           4.06824304498524      0.95675797929215      2.11098721810530
  H           2.70174207927624     -0.09274390750069      2.39444889814914
  H           1.71935276778956      2.49330760050167     -1.51141400613501
  H           2.74342513207384      1.06545356221467     -1.63121824959306
  H           1.08039291879064      1.01173781025040     -2.21492013430733
  H           4.38854397185289     -1.24727208178920      0.98286655147092
  H           4.33426546386184      0.06185842208221     -0.17657789775827
  H           3.80442445581447     -2.60131898248194     -1.13587133805562
  H           2.01643946943589     -2.69438164681603     -1.55378778554359
  H          -2.94934083813832     -2.49526796128664      1.60618698327180
  H          -3.63018662426161     -2.68427676792145      0.00376549702356
  H          -1.94279812992622     -3.13860982871545      0.29323538147120
