38
Coordinates from ORCA-job 15607 E -622.101130879318
  O          -5.82657426276972      0.65586379102716     -0.04395629762916
  O          -4.85246527135370     -1.36339897601395      0.12565993739228
  C           1.61622952129017      0.51398123335068     -0.04327318407278
  C           2.87702709958175     -0.34276434528343      0.03979424632944
  C           0.32439669142851     -0.29539969216610      0.03571361756995
  C           4.16929852058711      0.46620988280894     -0.03922406336603
  C          -0.93598202681622      0.56175319982388     -0.04737618314173
  C           5.43018480439340     -0.39023992631249      0.04385911367830
  C          -2.22332247387053     -0.25434299154388      0.03217762648870
  C           6.72359031395524      0.41783386482556     -0.03620224132797
  C          -3.46998028134095      0.61593667360037     -0.05125932068074
  C           7.97778683120970     -0.44815785823189      0.04897523104155
  C          -4.75826893301246     -0.16699128892374      0.02241549107363
  C          -7.11050190395987      0.01688073188734      0.01520454027632
  H           1.62886123876751      1.25496435678563      0.76430701104956
  H           1.62852402866093      1.08553141253910     -0.97845689336655
  H           2.86469434674498     -0.91423067650436      0.97490280213545
  H           2.86429902572941     -1.08381804153028     -0.76755899682088
  H           0.31085148502034     -1.03620824668883     -0.77159649394310
  H           0.31122568140635     -0.86681656210360      0.97060923428560
  H           4.18141453263864      1.03764474315991     -0.97448094594717
  H           4.18184367657380      1.20736183698082      0.76817786535668
  H          -0.92250140541702      1.30294654963181      0.76019953850853
  H          -0.92296571659001      1.13351413871784     -0.98259826331411
  H           5.41917165918464     -0.96137546295229      0.97946018515165
  H           5.41800935863886     -1.13208677013883     -0.76308562443880
  H          -2.24541062314378     -0.99395510975593     -0.77219051394223
  H          -2.24434581249324     -0.82618952008058      0.96342683178216
  H           6.73419026598786      0.98718302881337     -0.97174328752155
  H           6.73475614681492      1.15905803278233      0.77000502748829
  H          -3.48730423374320      1.35918381400878      0.75177763289582
  H          -3.48666166242361      1.19269509254518     -0.98129373721533
  H           8.00815266860887     -1.00374913387130      0.98975440032373
  H           8.00768235032742     -1.17728185893440     -0.76475900759532
  H           8.88620621226843      0.15461211376840     -0.01096845271414
  H          -7.22311118021636     -0.52844119179357      0.95189961417206
  H          -7.84032501904987      0.81931652656144     -0.05009684431931
  H          -7.22996865361838     -0.67843237078909     -0.81530859564278
