32
Coordinates from ORCA-job 15600 E -394.233633109118
  C           0.64659046901020      0.40572831904198     -0.00391965460526
  C          -0.64724061538660     -0.40455572883785     -0.00260634277338
  C           1.90601675115865     -0.45710531682960     -0.00144250366915
  C          -1.90668561517186      0.45826516499357     -0.00539270239548
  C           3.19992845648509      0.35283005619401     -0.00252386912002
  C          -3.20055899530218     -0.35173820392429     -0.00397975528480
  C           4.46039142750963     -0.50936903493049     -0.00060910722834
  C          -4.46102660015258      0.51046442047427     -0.00725769672787
  C           5.74787847903348      0.31067334114312     -0.00163584458383
  C          -5.74852646230240     -0.30956697131116     -0.00590782239628
  H           0.66054391366522      1.06313849478012     -0.88080734229336
  H           0.65980826090251      1.06714129654501      0.86996343217895
  H          -0.66036713144105     -1.06610111774328     -0.87639596254126
  H          -0.66123869304527     -1.06188462259434      0.87433685477502
  H           1.89188291831700     -1.11461289956581      0.87541304261319
  H           1.89275706938581     -1.11845139611470     -0.87540986788667
  H          -1.89342056161434      1.11984808800198      0.86840604104094
  H          -1.89256287875433      1.11554640505235     -0.88240058315464
  H           3.21454660602221      1.01088267413946     -0.87916980157422
  H           3.21400704583353      1.01412648350521      0.87167450568411
  H          -3.21432921113185     -1.01383354595554     -0.87759006085148
  H          -3.21548120293869     -1.00900480031131      0.87323549004904
  H           4.44498734229213     -1.16627684999113      0.87560391491341
  H           4.44550058749629     -1.16938747994949     -0.87448283116534
  H          -4.44652109085156      1.17131422545757      0.86600009033475
  H          -4.44524160736656      1.16653295069059     -0.88408300669871
  H           5.80314157768560      0.95594646795099      0.87886364597791
  H           6.63176823951605     -0.33034992962855     -0.00031100110396
  H           5.80360224778409      0.95302648396106     -0.88423756188472
  H          -5.80465580565991     -0.95091595275247      0.87740073784769
  H          -6.63242174832025      0.33144367445128     -0.00830760698406
  H          -5.80337417265808     -0.95584269594257     -0.88569683049220
