35
Coordinates from ORCA-job 15612 E -732.057520265864
  O          -6.16595923158610     -0.63439936786764     -0.04099737504784
  O           6.16756899598647     -0.62585500235765     -0.03055038511264
  O          -5.15484315848468      1.36709092735655      0.12441408028397
  O           5.15348775786325      1.37550603245821      0.11709704663409
  C           0.00019293740765      0.20731804109558      0.03012093947342
  C          -1.27483439939575     -0.62865379266808     -0.04235188080049
  C           1.27648448270570     -0.62674491593617     -0.04211514299804
  C          -2.54726846278280      0.21108163903756      0.02978205712639
  C           2.54761941275966      0.21489747568953      0.03061834077474
  C          -3.80913531719925     -0.63788678757990     -0.04320183146872
  C           3.81076916401301     -0.63217444603301     -0.04228100053908
  C          -5.08298468249519      0.16891130802679      0.02490636868197
  C           5.08341359966198      0.17655141406663      0.02568832164804
  C          -7.43817034895821      0.02826679182527      0.01460182131293
  C           7.43874191762543      0.03881727525167      0.02452577655953
  H          -0.00028143187909      0.93952942955700     -0.78474871426180
  H          -0.00032198708446      0.78841213899539      0.95881428076944
  H          -1.27319550413616     -1.21049954273098     -0.97145815046135
  H          -1.27360453216207     -1.36114779378510      0.77326212135236
  H           1.27606459115050     -1.35942257782626      0.77333906448674
  H           1.27605868455816     -1.20835152844140     -0.97136860968690
  H          -2.55694774980897      0.79310904638909      0.95480915682108
  H          -2.55692220233860      0.94238239598099     -0.78236431847749
  H           2.55646455503688      0.94646661307749     -0.78126319708098
  H           2.55613811401061      0.79659882954757      0.95588907663432
  H          -3.83758234164652     -1.22384577500354     -0.96711344280422
  H          -3.83841025840361     -1.37214033592602      0.76778482714407
  H           3.84105695455070     -1.36691164729780      0.76815458228929
  H           3.84020329581192     -1.21747437872876     -0.96663113347925
  H          -7.54269380115293      0.57647438642309      0.95054742043931
  H          -7.54269751899089      0.72485104364711     -0.81682755930531
  H          -8.18252785154455     -0.76060849757265     -0.05157828215346
  H           7.53836604427852      0.59614472497153      0.95558927574060
  H           8.18429803910133     -0.74975845041877     -0.03074549825168
  H           7.54629023352806      0.72748932677668     -0.81311003624306
