17
Coordinates from ORCA-job 156179 E -384.054895706453
  O           1.77568574452055      0.28620453849031      0.30732292695813
  O          -0.67947367100410      1.33822253062956     -0.32632882415941
  O          -3.01174213641852     -0.29279454446831      0.28197354732564
  C          -0.57857689667135      0.06180497841380      0.27962471644042
  C           0.74160010573607     -0.59701699636389     -0.08818421085875
  C          -1.75915286666550     -0.78795212444939     -0.15753588731773
  C           3.06058425081047     -0.13819572018607     -0.09847971910658
  H           0.16377804878926      1.78386245625933     -0.17343190703284
  H          -2.96142260537997     -0.11602869800796      1.22791647406812
  H          -0.60565536069571      0.16558238509236      1.37748274958350
  H           0.78463389580335     -0.76599689463384     -1.17332241528712
  H           0.84888815120524     -1.56482253331802      0.42017570364671
  H          -1.59940113727495     -1.81789481176576      0.19169189851803
  H          -1.80884340365742     -0.80026762369524     -1.24751380230642
  H           3.31800731396734     -1.10725597969861      0.34660579944039
  H           3.12393003814460     -0.22582165885548     -1.19012034690363
  H           3.77286452879063      0.61110569655722      0.24309129699154
