38
Coordinates from ORCA-job 15693459 E -884.183832231392
  O          -1.01816474744503     -2.38024576496051     -0.06459788905772
  O          -4.83495153930907      0.48222267096193      0.26492622343586
  O           4.97014220721228      0.05720604801321     -0.01853026675760
  C          -0.44151027266796      2.51794802516365      0.08564274270160
  C           0.74887550178802      2.29938418810098     -0.84514709298118
  C          -1.30866107298234      1.28680174863848      0.11234762716790
  C          -0.67917476623922      0.02305281303570      0.06860287697106
  C           1.51789107873537      1.08639339017729     -0.39770528407526
  C           0.79707885980932     -0.03310141952387      0.06820496148188
  C          -1.51822726762413     -1.09723357775367      0.03196181213620
  C          -2.68467112942700      1.40188780062275      0.17409985524665
  C           2.90062530899922      1.07255240207781     -0.41128786259875
  C           1.52675951988339     -1.12106782668956      0.54789558859538
  C          -3.49368127956071      0.26685506324997      0.18632677967302
  C          -2.90401247518953     -0.98761493053350      0.09966210518619
  C           3.61264840332394     -0.03649651750689      0.04475772420882
  C           2.91668040885890     -1.13580181405106      0.53835800347570
  C          -0.60057519803825     -2.74475893636621     -1.37897099267273
  C          -5.69265051310734     -0.64563779862275      0.27243431843349
  C           5.73744420293355     -1.03566066818311      0.45372653664281
  H          -0.06926603146826      2.72819410330005      1.09544751035963
  H          -1.03026095237138      3.38178856718247     -0.22600570640845
  H           0.37966711398849      2.15072003228773     -1.86702524282452
  H           1.39975520680909      3.17467709750060     -0.86202824178005
  H          -3.15544187483713      2.37576757514674      0.21305970335237
  H           3.45579434034661      1.93158750321080     -0.76705489117469
  H           1.00120523292364     -1.97718315061217      0.94161779473831
  H          -3.48029757853250     -1.89973677932312      0.07600598258356
  H           3.43624196646151     -2.00032538841112      0.92402031027690
  H          -0.22194510659756     -3.76331520799809     -1.31414135668553
  H          -1.44705800890872     -2.71157705641036     -2.07179976152882
  H           0.19146495375471     -2.08529966438929     -1.74175286520491
  H          -5.48749089177506     -1.29662902766078      1.12748205716386
  H          -6.70418656439599     -0.25401152211075      0.35064391252192
  H          -5.59818958053476     -1.22461824122454     -0.65133010193238
  H           5.55401249027662     -1.22320719958231      1.51609790842834
  H           5.52592092902577     -1.94715212666430     -0.11373086244969
  H           6.77888612588151     -0.75614441009223      0.31160508335085
