44
Coordinates from ORCA-job 15690458 E -962.821388232455
  O          -2.17263482666019      2.54300021157888      0.02222302635387
  O          -0.60175171585761     -2.51381823957506      0.80475565239427
  O          -3.10314065827257     -2.08114565529511     -0.12642121149739
  C           3.89048572812579      0.41659528676242      0.04531715304620
  C           4.32840067703180     -1.01422147927648      0.39925120496889
  C           2.36352627045015      0.55134502672855      0.06868896219842
  C           3.47398973906945     -2.06091503143319     -0.29174040127325
  C           1.49050309126491     -0.55084033603018      0.15927335358949
  C           2.03591729535170     -1.95970220426844      0.19685461925850
  C           4.53190058543283      1.37023510626133      1.06902377084881
  C           4.40197653516786      0.78307967776997     -1.36201804522789
  C           0.09783214126490     -0.31938978927979      0.19300485475106
  C           1.81674705080861      1.83070150288200     -0.02047474799853
  C          -0.42416421918374      0.98270773089631      0.08323288363278
  C           0.45303676876426      2.05664444841679     -0.01970565573371
  C          -0.88156405304828     -1.41401574074825      0.38391762296357
  C          -1.87375241168598      1.22531673231165      0.07019222478894
  C          -2.82679652080977      0.25439360648290      0.05944303352110
  C          -2.37375767359773     -1.12657872900334      0.06806003086285
  C          -4.31247309962380      0.54535404948988     -0.02660509099776
  C          -4.88587304725116      0.16859259231459     -1.40090887138012
  C          -5.09947673068226     -0.11117935317650      1.11676997260212
  H          -3.13222631864209      2.65090216054990     -0.00418311060735
  H           5.38535791738404     -1.12948127718832      0.14648113705258
  H           4.24785432591868     -1.15524067852821      1.48242693956726
  H           3.51246375059019     -1.92738937185820     -1.37657546527853
  H           3.85437418074191     -3.06411105456722     -0.08918692101709
  H           1.38768602843693     -2.61888938087343     -0.37767622898614
  H           1.96806613260155     -2.33381381519534      1.22288467634471
  H           4.12636814231454      1.19940798100586      2.06773038244081
  H           5.60942950971145      1.19522972789008      1.10528510907570
  H           4.37982521638771      2.41946132297090      0.81536148978617
  H           5.49237621314172      0.72404046638512     -1.39220902886392
  H           4.00182568617309      0.11148692644622     -2.12205146443042
  H           4.11085714673356      1.79861194200170     -1.63406317074026
  H           2.47599309978984      2.68446708906473     -0.09774980189683
  H           0.06800671997631      3.06174993740066     -0.09589577194982
  H          -4.47145990861884      1.62614858154461      0.09198165373785
  H          -4.80172840066373     -0.90468330538870     -1.56191188456816
  H          -5.94012176634350      0.44757611650427     -1.46003220392706
  H          -4.35127063627555      0.68064618193050     -2.20348306205348
  H          -4.70229943348688      0.18940839706721      2.08808524837181
  H          -6.14774349057352      0.19053199484588      1.06901575556745
  H          -5.04837604135656     -1.19560335581713      1.04427438070248
