42
Coordinates from ORCA-job 158311 E -1297.181115276091
  O          -0.00027890698931      0.60797523874410     -0.15993296016708
  O          -5.43813593033770     -0.01857795417426      0.30125147768233
  O          -4.30487079604740      2.33077433821040     -0.85147320641904
  O          -3.84469798106249     -1.94702655563927      1.19403973438814
  O          -1.27019524105170     -2.85971603457138      1.56243859378907
  O           5.42527144970678     -0.06223264036783      1.90980658903693
  O           1.82858017882425      0.77500286390116     -2.20726654293197
  O           6.30420196344968      1.02036826681345     -0.46336527464461
  C          -1.85564550358906     -0.76455667515634      0.56624467873218
  C          -1.34119668858880      0.40044633346544     -0.02134128766932
  C           0.88046140493510     -0.34487892887736      0.22991465561698
  C           2.28104472627104      0.03392563268389      0.00546527291383
  C          -3.25955560802072     -0.86209414258886      0.65593776472536
  C          -0.92386774445841     -1.81371340988023      1.03291666215859
  C           0.47798590363350     -1.50023512206409      0.79130570027582
  C          -2.14221905648586      1.43738867612428     -0.48018244599364
  C          -4.07502303186843      0.16413585329928      0.17734836808128
  C          -3.51608691360848      1.32215173595761     -0.36994643986129
  C           2.72568115403572      0.59427624887746     -1.19878518045549
  C           3.22627057286403     -0.19811046244110      1.00813579704549
  C           4.56378876108737      0.11701914067903      0.86003684490855
  C           4.06940833138377      0.91790816123970     -1.36156282773270
  C           4.98880216151282      0.69374395464954     -0.34382518838609
  C          -6.12184217569685     -0.23622691831551     -0.94349685691823
  C          -5.07085845012901      3.03315404115431      0.13501760229990
  C           6.36673783081193     -1.12482339812531      1.74733755242871
  H          -4.79882714039877     -1.76729296610361      1.19570796279223
  H           2.28105745546580      1.11390696721248     -2.98722877926541
  H           6.46160949452993      1.43150930897009     -1.32067386158832
  H           1.20636094032335     -2.24784338002895      1.06743876695508
  H          -1.69838653814895      2.32202495693118     -0.91178374698931
  H           2.90705717524825     -0.61386198689821      1.95406720154994
  H           4.40566894067983      1.35089642725067     -2.29906650562023
  H          -7.16540498895920     -0.41420245619561     -0.69188046990661
  H          -6.03605284807225      0.64020496696014     -1.58650616905189
  H          -5.70984033428841     -1.10890490031250     -1.45638244835028
  H          -5.75924871673252      2.36498013757252      0.65389831160104
  H          -4.40448713759184      3.50861526697718      0.85962591092250
  H          -5.62783931451886      3.79681333123708     -0.40342584081086
  H           6.95387558713887     -1.15485807479660      2.66299211385028
  H           5.84782462264638     -2.07913125364037      1.61460114945334
  H           7.02566339209659     -0.94308258873363      0.89619432155478
