59
Coordinates from ORCA-job 158845 E -1681.283467628684
  O          -0.98774556389086     -0.74364176807057      0.56792853228044
  O          -2.14268810528973      0.34441403632289     -1.05333391233172
  O          -2.71408639889522     -4.31122578900812     -0.38355639857824
  O          -1.25749578127545     -4.07907363591826      2.10523665896201
  O          -3.86798608738419     -1.88340434367749     -1.31508632469243
  O           0.54377575139521     -0.24103733154250      2.91017560181929
  O           0.87525469625572      1.23239895852871     -0.73031246101613
  O          -2.33871487059418      5.62748121009485      0.56473958815727
  O           2.27884777024331      0.82333174594567     -2.43636089338218
  O           2.68786648476268     -2.03089848818003     -1.87466131866053
  O           2.74623841780112      1.53904528952712      1.38522870847362
  C          -2.51691506958615     -3.08029352526627      0.29628567006314
  C          -1.21964706830339     -3.07110905891192      1.09546249514502
  C          -2.57511524375725     -1.97298180184747     -0.74838849578929
  C          -0.96547340588024     -1.66884728010450      1.64867793217234
  C          -2.24019947482496     -0.64805286171948     -0.08060339808564
  C           0.38136147143648     -1.51942449767914      2.33239641259436
  C          -2.20838529157276      1.65270780978219     -0.60615162553253
  C          -1.13980967070759      2.50775663572494     -0.88144232865882
  C          -3.33933004884958      2.13054965703025      0.03748612452779
  C           0.05979279479478      2.01973066410604     -1.62981165234743
  C          -1.21903377931141      3.83518258201448     -0.47875211423412
  C          -3.40462184874047      3.45631286090686      0.44616963088990
  C          -2.33915440956927      4.31236644362802      0.19241085333092
  C           1.95800471617296      0.66589233780270     -1.28491688022522
  C           2.70199817435357     -0.18816344535213     -0.31086248627677
  C           3.04250331795581     -1.50373102440984     -0.66474920682994
  C           3.10248265488731      0.29004321713298      0.94348170539890
  C           3.76848393357011     -2.30453581243636      0.20715779187650
  C           3.83402869317384     -0.51142092330095      1.81031286953470
  C           4.16560456358863     -1.80496679147374      1.43951639075403
  C           1.30262533704957     -2.31555357819887     -2.05305535165033
  C           3.39201341170924      2.64130012965782      0.75219513452571
  H          -2.56432845222981     -5.02244463924032      0.25214065531984
  H          -1.89208401473421     -3.81413560649407      2.78341851276439
  H          -4.11269705397715     -2.76837612632029     -1.61248851345253
  H           0.63655029845485      0.40879946976696      2.20131225755909
  H          -3.16395917379132      5.83722666911866      1.01582531434774
  H          -3.34816874942347     -2.90975411411167      1.00012223617712
  H          -0.39189259705192     -3.35229977331971      0.44180279078560
  H          -1.81915813336743     -2.16298601770177     -1.51970165164731
  H          -1.75747892759020     -1.40707857998134      2.36982863783774
  H          -3.01467339522115     -0.39572217546266      0.65692743749963
  H           1.17283662285745     -1.73802037776875      1.60849810126907
  H           0.45391778202953     -2.24767605105741      3.14015578122668
  H          -4.18017278591894      1.47090367489415      0.20415136268474
  H           0.65336470518255      2.85325861070841     -2.00447991009729
  H          -0.22100041314780      1.39286840240815     -2.47472889290635
  H          -0.40328931159833      4.51620706963032     -0.68394233960648
  H          -4.29236345030324      3.82350830566985      0.94877155814792
  H           4.00674132159120     -3.31371477904381     -0.09927803038214
  H           4.11116914490625     -0.10668721257728      2.77328020301082
  H           4.72902583677058     -2.43190864589194      2.11829320350673
  H           1.01999936216981     -3.19854839067728     -1.47024607740687
  H           0.66896899159337     -1.47814010466009     -1.75510481428867
  H           1.16017256004295     -2.51715892105218     -3.11212770217356
  H           4.47175254965242      2.59953862455224      0.92254130208066
  H           3.20160785174310      2.66642761974283     -0.32322766865216
  H           2.98230236064324      3.53898844776113      1.20980399418092
