41
Coordinates from ORCA-job 159029 E -1221.952834555210
  O           0.75728690445991     -0.33937506812592     -0.15297464995723
  O          -0.98942567771148     -2.35531172845311      0.09265177693011
  O          -3.71600363845338     -1.80736719095956      0.24126439713686
  O          -4.61218919759445      0.81598581615993     -0.09746649825925
  O          -2.88039457777751      2.81175341891359     -0.37330634522712
  O          -0.24734611040390      3.58724160802759     -0.56743328887146
  O           2.67047456607808     -1.11326570091868      1.74095723817542
  C          -0.99291759529710      1.33314693982167     -0.27127973012290
  C          -0.56116321156695      0.00427701498032     -0.13623254695249
  C          -1.44332176400316     -1.06670550393163      0.01853108423709
  C          -2.38084100879094      1.56885987356411     -0.23465017838037
  C          -2.81084168697701     -0.80468406077947      0.05001120604316
  C           1.70447074484566      0.62059918920331     -0.27394361047664
  C          -3.27082663749204      0.50770024288568     -0.07021056493725
  C           0.01674203662781      2.40194928198772     -0.43439213925592
  C           1.39332294669262      1.92084391480585     -0.40993511520819
  C           3.07396119863153      0.08246379788478     -0.27127669495068
  C           3.52701349206796     -0.78588818033394      0.73196889197855
  C           3.96544783524072      0.46118489070599     -1.27571486491241
  C           4.83454839447896     -1.26110247825475      0.70501132856981
  C           5.27024134410774     -0.00765813497070     -1.30226136532488
  C           5.70146040512559     -0.87539811933844     -0.30709929796673
  C          -0.54068982907405     -2.75023091905349      1.39381407160495
  C          -3.88708172326129     -2.69075084449986     -0.87553899892409
  C          -5.30026723668620      0.64708423974475      1.15122973244230
  H          -3.84615739009164      2.71219687650901     -0.38394164496963
  H           3.13764462339117     -1.64761471555681      2.39308659954756
  H           2.17842986002589      2.65828369608670     -0.48551266796341
  H           3.61047448086882      1.12507442498503     -2.05269384821040
  H           5.17347462979108     -1.92933044128544      1.48926617766114
  H           5.93981776023303      0.29470965110218     -2.09563280256959
  H           6.71501971124268     -1.25475981526362     -0.31383559768209
  H          -1.35131614934778     -2.65477373025330      2.12125978028510
  H          -0.24696729073664     -3.79513404802022      1.31016694337249
  H           0.31708761959444     -2.15064583158049      1.70296180335988
  H          -4.63385390927246     -3.42068077545851     -0.57054168371075
  H          -4.25056400086907     -2.13377324593879     -1.74266634696532
  H          -2.95042216110539     -3.19313052770308     -1.11714556101618
  H          -4.82698830505923      1.24917033198505      1.93166787534824
  H          -6.31854774586300      0.99355498710068      0.98631677886163
  H          -5.30541070606898     -0.40211313577411      1.44445835726068
