41
Coordinates from ORCA-job 159278 E -1071.985566288885
  O          -1.39859447329375     -0.80960310520199      0.21617238717328
  O          -0.01745304701071      0.59630087942918      1.37310223707190
  O          -3.94229126479718      2.25487093841433     -0.79604493342436
  O          -4.77798435840428     -0.44011371207291     -1.08434384705987
  O          -1.98495886553932      2.65613177433259      1.24986016078227
  O          -2.21187698110509     -3.59750897379805     -0.19560757988265
  O           4.92171988020922     -0.13806127453154     -2.59512587736442
  C          -3.36657604026383      1.21157422935996     -0.01904976800244
  C          -3.43054166002965     -0.06133086626854     -0.84849720906137
  C          -1.94111325175507      1.52361755676359      0.39244319987383
  C          -2.72701501264513     -1.20208700714499     -0.10825485419587
  C          -1.34023933740983      0.30594443190062      1.08288032377236
  C          -2.64889308529506     -2.46952122291718     -0.94087713132542
  C           0.64857435392162     -0.38916551585415      2.16631187926531
  C           2.10232872434581      0.02792281949596      2.33030082963742
  C           2.87536290311450      0.01298269816032      1.03729671044506
  C           3.44463816755410     -1.16720645150517      0.55839182339186
  C           3.00755626735283      1.15989832142441      0.26089858710600
  C           4.12191018952276     -1.20955207298899     -0.65004571293715
  C           3.68403510272076      1.13683224268573     -0.95196119801834
  C           4.24269192249103     -0.05135667193198     -1.41140565743009
  H          -3.85881404653736      3.07417452853327     -0.29336404340625
  H          -5.24263027014061      0.34516928895593     -1.39968158991758
  H          -1.08287126608797      2.83345328008936      1.54190315103184
  H          -2.92943882181959     -3.87961414926560      0.38153865730097
  H           4.92879167614260      0.72420157704128     -3.02532858268750
  H          -3.96226475283307      1.05724536744477      0.89140083130408
  H          -2.90977238665944      0.11633312000439     -1.79887185380729
  H          -1.33597829348950      1.73121650169887     -0.49759440119699
  H          -3.29174685810227     -1.41207271622394      0.81356881006758
  H          -1.89874571481274      0.07756754719285      2.00858052013829
  H          -1.91025344088745     -2.32200681105585     -1.73019058613178
  H          -3.62339026762107     -2.64542486352707     -1.40417428326446
  H           0.15445992756176     -0.45510738050206      3.14432723806141
  H           0.57776601617993     -1.36054567500631      1.67251823487258
  H           2.13239651651635      1.02457721240540      2.77757659788897
  H           2.56121669315168     -0.65746473725347      3.04801849531359
  H           3.35711814684990     -2.07632962896002      1.14231679227239
  H           2.56953920779277      2.08871062940945      0.60431694850408
  H           4.56268265307201     -2.12769974016771     -1.01461143142353
  H           3.77657514804033      2.04312063143524     -1.54092387473773
