28
Coordinates from ORCA-job 159650 E -782.313652830866
  O          -3.17268128735944      1.57622318990143      0.12602408861054
  O          -0.55720032912571     -2.33509725482381     -0.34425545232532
  O           4.04312626338459     -0.70823111805755     -0.16162763715094
  N          -0.87080240231293      1.83424265660327      0.15138929992446
  C           0.43935542151658     -0.22903718873279     -0.09650487039426
  C          -0.75172695159640     -1.01030229152394     -0.18651777085899
  C          -1.96589722752047     -0.35194888958093     -0.10553960675794
  C           0.32466645719328      1.18490173926102      0.07158458812960
  C          -1.90165674624179      1.06597649052623      0.06258963386890
  C           1.71591745102513     -0.81921852749824     -0.16946247609288
  C           1.50985579773079      1.94118782147985      0.15864226082777
  C           2.85185386721019     -0.04836385221868     -0.08054707708768
  C          -3.38005407988988     -0.66032485824374     -0.13891153568705
  C           2.74563187013994      1.35023256547239      0.08569971664817
  C          -4.02344553608754      0.51328291244515      0.00181632785915
  C          -1.67075002010471     -3.21059407341480     -0.44541334857386
  C           5.24196156069503      0.04105528207456     -0.07506898937493
  H           1.81253297305509     -1.88694729710902     -0.29641062692260
  H           1.41200578864589      3.01078717548150      0.28581286971184
  H          -3.86083858326507     -1.61416745950835     -0.25099352783560
  H           3.63084456329626      1.96462485759056      0.15662334877098
  H          -5.07193295803920      0.75428959736075      0.03281502480458
  H          -2.27955975541707     -3.17802958928891      0.46032148942258
  H          -2.28376717999841     -2.96748110221930     -1.31557113339512
  H          -1.25285723571264     -4.20712227162707     -0.56454576943218
  H           5.32407869700611      0.55968158588240      0.88503830183725
  H           6.05164534970764     -0.67984617648309     -0.16248864563330
  H           5.32031823206473      0.77041107625112     -0.88711648289319
