50
Coordinates from ORCA-job 160190 E -1414.150279341410
  O           2.38267247946721      0.64418598752971      0.66984295704040
  O           0.46796074540925     -1.15405671892873     -1.91745968690253
  O           3.16173657089930     -2.14314864661926     -2.28591648068417
  O           4.85450672481342     -2.00941499359646      0.00663945097103
  O          -1.34141713416208     -0.37759503010059      0.78587437413737
  O           4.13503678032542      0.90586080668146      3.00314629904361
  O           1.67348253504832      2.62094546085307     -1.17605333116376
  O          -4.58346299688960      1.98104664942065      0.19786377256699
  O          -1.17595277308169     -3.04024017328650     -0.25170858262604
  C           1.60743930377903     -0.59793727447182     -1.30056915530011
  C           1.24257176370958      0.06972157762222      0.04217479997338
  C           2.70997157831482     -1.62059144775938     -1.05216439289439
  C           3.86882141225842     -1.00866879377940     -0.26857467378132
  C           3.37827827743296     -0.30234396154341      0.99918828791671
  C           0.17922684866823      1.11698695558268     -0.13785586292787
  C           4.50049399674326      0.43083632981731      1.71589250063615
  C          -1.14424859994511      0.84947145326662      0.20908007998513
  C           0.41618439177856      2.34243820050612     -0.75038737253545
  C          -2.21691239060182      1.72497332067980     -0.01566050566940
  C          -1.92911063642235      2.98026182461599     -0.60140335596903
  C          -0.62153283418217      3.25794131609634     -0.94780934644726
  C          -3.58203352637690      1.28333888414313      0.32004716846985
  C          -2.58418593139109     -0.83674041794724      1.01711084597580
  C          -2.98776489961565      4.00978245718281     -0.87605819930500
  C          -3.67635494182293     -0.09001084889583      0.80441326899732
  C          -2.57511282504633     -2.23321317464196      1.54060523394496
  C          -2.01033905625292     -3.29039917592064      0.58490807541627
  C          -2.55016055402330     -4.68356133153011      0.78130412472912
  H           0.04673215232467     -1.79748010965990     -1.32757688063709
  H           3.99767800812804     -2.59492612085049     -2.11240201340764
  H           4.45127196301341     -2.68731823775479      0.56400182886462
  H           4.01881234221287      0.15119441511925      3.59002232703281
  H           1.67821319209170      3.47977840403115     -1.61419923072483
  H           1.98588477750166      0.16088843348326     -1.98635451199817
  H           0.84688337344144     -0.71409597780552      0.69684149877593
  H           2.27878193391496     -2.43184600340583     -0.43572972619200
  H           4.37439116563743     -0.27983415366713     -0.90625621361351
  H           2.95413894239368     -1.06522877720217      1.68088120188966
  H           4.75945513043911      1.31464318698402      1.13140919460139
  H           5.37713338047294     -0.22237593024591      1.76214401400894
  H          -0.39024144193381      4.21152901493840     -1.41083820244277
  H          -3.50409528080885      4.30048465734560      0.03825232013714
  H          -2.53862294132197      4.89294234787343     -1.33131253529267
  H          -3.75850346705876      3.61688375747595     -1.53855601015544
  H          -4.66166386077974     -0.48327707955860      1.00821847951350
  H          -1.94658264758000     -2.28294906127653      2.43922817376707
  H          -3.58170632713385     -2.51513548553602      1.84703439645543
  H          -2.54340722215260     -4.95603581209201      1.83948396179604
  H          -3.59324213188963     -4.71056580680540      0.45262496274496
  H          -1.96993034974656     -5.39711089636733      0.20131067127885
