32
Coordinates from ORCA-job 160179 E -876.769118935821
  O          -2.19672990873478     -0.53993587993900     -0.24638902098522
  O          -3.40058527549569     -3.09208793745523      0.67071761959389
  N           0.56816736694008     -0.77983266176182     -0.06383072467630
  N          -0.65256096084271      2.71059235022428      0.00820343131548
  C           0.40875979573651      0.58763005077815     -0.03390178091368
  C           1.68264082452626      1.19539597359914      0.02507565277753
  C           2.64906005960943      0.12619331486069      0.02934829134382
  C           1.91303774655572     -1.08075156105144     -0.02349172630280
  C          -0.74827280614096      1.37860441452152     -0.04436440850096
  C           1.75106407049128      2.58320148031385      0.07330919995426
  C          -2.08312206967772      0.81815715596269     -0.09942271427334
  C           4.04197900256264      0.08287733135554      0.07498069361142
  C           2.54451813462713     -2.32118090269669     -0.02982022567880
  C           0.55197640843653      3.28324610847406      0.06436163576314
  C           4.67427002252115     -1.14874340328539      0.06823049829174
  C           3.92912155157131     -2.33576916865573      0.01667172035088
  C          -3.32566029542694      1.37289564110523     -0.02100970749303
  C          -3.52838794801392     -0.84561809140779     -0.25362676919410
  C          -4.25371924095937      0.29730235856780     -0.11530694395001
  C          -3.89022681937483     -2.27564376762460     -0.39510695696699
  H          -3.70667907911506     -2.71382517832783      1.50362076935409
  H          -0.19282836723651     -1.43541076644482     -0.08872783400008
  H           2.69577093617242      3.10818139548481      0.11950209745453
  H           4.61914859912959      0.99794307284264      0.11541285009102
  H           1.97575514410476     -3.24120725091576     -0.06883126392533
  H           0.55555309478149      4.36674628421442      0.10386557668055
  H           5.75432946919668     -1.20064905672620      0.10318237858825
  H           4.44745609110840     -3.28605851978681      0.01319312326733
  H          -3.52928847554566      2.42248577252931      0.09499540788406
  H          -5.32898678393728      0.36072884384886     -0.08820183244388
  H          -3.44846298609723     -2.69904039884799     -1.29956931410391
  H          -4.97915330147271     -2.34582900375587     -0.48824272291359
