42
Coordinates from ORCA-job 160485 E -1072.974481945435
  O          -4.81169139627450      0.54633180269547     -0.13149881111011
  O          -2.45435812686390      0.88210809046746      1.26653376468097
  O          -0.05146325074378     -2.16207322594496     -0.17528737573475
  O          -0.92668645143089      2.37722838163052     -1.12571218084566
  O           3.50321467286830      1.04555797004011     -0.05323398722282
  O           5.60331775942908      0.51273288830668      0.44387284508247
  C          -4.18453363585847     -0.60671783297772      0.43465892457459
  C          -2.66321052793362     -0.34181285317886      0.54155728906909
  C          -1.96955771198255     -0.17923441496714     -0.81220714193890
  C          -0.50483752550305      0.12436854788616     -0.65971386417822
  C          -4.76279581476487     -0.87472154046824      1.82882904331243
  C          -4.50156831205356     -1.77500146882871     -0.49027895717263
  C           0.39837548644219     -0.86847250634633     -0.33365790941432
  C          -0.01194272888706      1.44286753416228     -0.78904054155238
  C           1.76406884020722     -0.60641432469445     -0.10802443563219
  C           2.20072625472824      0.71299464603845     -0.25122396776305
  C           1.33209943662418      1.73836130747153     -0.59351123118983
  C           2.72350219344357     -1.58787267605110      0.28814356992200
  C           4.01407251954281     -1.24883276786207      0.48598230676470
  C           4.47792576842247      0.11353455807019      0.30708112515369
  C           0.06549884186659     -2.97038527550350     -1.34715271803414
  C          -0.52087533602024      3.73381127485746     -1.22021434579596
  H          -4.42927755797004      1.31213084844975      0.31938186470105
  H          -2.44472063756855      0.69051522273312      2.20870840694959
  H          -2.19521511186088     -1.17278128340974      1.07721270529323
  H          -2.09604692320181     -1.10286715123796     -1.37275562932238
  H          -2.46411216219125      0.61493140086023     -1.36670513543631
  H          -4.32311259768363     -1.76982750028861      2.27575096567632
  H          -4.58818741893571     -0.03000061593797      2.49776756335201
  H          -5.84075819657269     -1.01805556730224      1.75465669328871
  H          -3.95682634435119     -2.67122738501855     -0.18649166350484
  H          -5.56931919804460     -1.99365734418994     -0.45401823112592
  H          -4.24434612288158     -1.53546376696302     -1.52051156389978
  H           1.72642089140027      2.73719308966553     -0.68956923057411
  H           2.39122929160414     -2.60575109519023      0.44366839800171
  H           4.76344038712883     -1.96388641626144      0.79135248777560
  H          -0.32429180303411     -3.95256302333139     -1.08751632188617
  H          -0.51631019582386     -2.55067425987963     -2.17238128527178
  H           1.10909201269114     -3.06030252657786     -1.66100654661227
  H          -1.41721754566676      4.29412601442037     -1.47322174275524
  H          -0.12215931673580      4.09183192769702     -0.26757882219997
  H           0.22847859443991      3.87068731695935     -2.00457931342443
