17
Coordinates from ORCA-job 16054 E -438.981002290173
  O          -3.15518777062150     -0.72804372016610      0.00000948546726
  N           2.08475879042847      0.89571464969972     -0.00007598071977
  C           0.47966000477912     -0.68472724996617     -0.00003896700239
  C           0.71765163747376      0.71226179439210     -0.00007923441621
  C           1.76120701834843     -1.32239790277361     -0.00000843471789
  C          -0.83732948252641     -1.15734880256515     -0.00000992423531
  C          -0.32319399859833      1.63254555564178     -0.00010781407417
  C           2.70338526689625     -0.33242115062059     -0.00005291373338
  C          -1.87077662194539     -0.23975767457016     -0.00002063415845
  C          -1.61858422956101      1.14346810050642     -0.00007063124119
  H          -3.77581064455438      0.00817725925622      0.00012028241075
  H           2.55434395703206      1.78211734093934     -0.00008298298484
  H           1.95845291739398     -2.38118435036415      0.00003342174726
  H          -1.06209584501585     -2.21556683386846      0.00003977592637
  H          -0.13839161908011      2.69939500859396     -0.00013958558988
  H           3.77833346188982     -0.40394291765294     -0.00004833916336
  H          -2.45317484233893      1.83572689351779     -0.00008252351480
