76
Coordinates from ORCA-job 16058081 E -1207.754201108586
  O          -8.54370609003204      0.34465829457640      0.37606578374404
  C           0.11223838805613     -0.53268219298529     -0.13849000955088
  C          -0.59111709294302      0.74731384418448      0.37974547569537
  C          -2.85113430260059     -0.38897830216611      0.44522408515201
  C          -4.31705095682890     -0.36301301377816     -0.07640490936134
  C           1.55449129509167     -0.28106857875188      0.37806792661299
  C          -2.04561408866839      0.83335785108501      0.02732694244629
  C          -0.63064120589265     -1.71986265741036      0.48176037242284
  C          -2.11717331017052     -1.70612095614895      0.11098217663245
  C          -4.86812673664522      1.06890889744847      0.14422463832568
  C           0.36275950493645      1.88138885421910      0.01675147147112
  C           1.76433974302941      1.24740961680591      0.17401157365839
  C          -5.17033126104164     -1.34642590140684      0.74994435155357
  C          -4.08427653631801      2.08773723343847     -0.67940079544443
  C           0.08256327963459     -0.59969046388795     -1.67207931998893
  C          -2.60662085995998      1.92098636030620     -0.49871522138070
  C           2.71365788447941     -1.10441089601189     -0.21652009850350
  C          -6.37375603950315      1.18580815274227     -0.09930357631085
  C          -4.37603734628334     -0.73912149107956     -1.56788419429333
  C          -6.66964467455770     -1.23285794918702      0.47169106289262
  C          -7.16656544086962      0.18564874752327      0.72253864612677
  C           2.55257230389977     -2.61990747502651     -0.03540300263103
  C           4.01238106833764     -0.66687192838800      0.40197049138161
  C           5.03776818205895     -0.13269093740253     -0.24852994110305
  C           6.32612692834845      0.31083145886401      0.39223547314728
  C           6.54950032771463      1.81936770176060      0.14864267918678
  C           7.49988794813725     -0.53267119620540     -0.07558894730152
  C           7.80165068939795      2.36968896207237      0.82317763056887
  C           7.85511319570953     -0.48218131484354     -1.53509233281040
  C           8.18328187997488     -1.28490026833281      0.78248069344126
  H          -9.05958773724512     -0.30409749852451      0.86744020775298
  H          -0.56124867450325      0.65148281420667      1.47637012401430
  H          -2.91022094417651     -0.34399585277807      1.54299259907391
  H           1.53657398871084     -0.48548768857962      1.45584699919240
  H          -0.20275721319371     -2.67196221732392      0.16638445883851
  H          -0.51679923886120     -1.67064449123576      1.57044512615403
  H          -2.61785061769603     -2.53129769670731      0.62104157517770
  H          -2.20479519580197     -1.91144793460560     -0.95548640485675
  H          -4.68679649674054      1.30397854468128      1.20131397012250
  H           0.19918512682416      2.20676635989674     -1.01210898466044
  H           0.22271067116205      2.75610263501952      0.65268313190170
  H           2.31345635227650      1.67549922862145      1.01227622271267
  H           2.37767953550619      1.42798261965027     -0.71014255318924
  H          -4.84217058418234     -2.37140231290702      0.56660819566409
  H          -4.99325153912525     -1.14915853834460      1.81334305900893
  H          -4.36108814059378      2.01246484547682     -1.73848441238074
  H          -4.37399646109586      3.09931045896758     -0.37668311343341
  H           0.45511857074135     -1.56189811206359     -2.02791987548213
  H          -0.92718181394970     -0.46825336253307     -2.05886531258806
  H           0.70097502001415      0.17800438939063     -2.12068129831022
  H          -1.98019923680355      2.76503016631745     -0.76494445937513
  H           2.76853839475704     -0.89061955572183     -1.28864077111140
  H          -6.70842959863599      2.19778382891256      0.14250705481034
  H          -6.60954869407414      1.02610110719612     -1.15509028915890
  H          -4.23136991347520     -1.81027207700254     -1.70926924576155
  H          -5.33898723644624     -0.48563963916811     -2.00859253988172
  H          -3.60560772795484     -0.22006225123866     -2.13834225174010
  H          -6.89573557737925     -1.50194482827044     -0.56352266878354
  H          -7.21706597644833     -1.93637175332952      1.10827525136003
  H          -7.02914402530663      0.42089969430123      1.78896593205260
  H           2.40088452590021     -2.87504758196494      1.01651070057367
  H           1.70554484141766     -3.00706603598173     -0.59975482553225
  H           3.44973621294743     -3.13725690705463     -0.37894247866539
  H           4.09424536476432     -0.81929137608344      1.47807231172037
  H           4.95365423223882      0.02319523781658     -1.32197996241723
  H           6.23131343005707      0.16131637593650      1.47185700769512
  H           6.58888734354134      2.01172665073927     -0.92770322223946
  H           5.66576277332947      2.34706127936956      0.51676949890243
  H           7.77109169585343      2.19821156216092      1.90205831984650
  H           8.70524918544723      1.88917357912266      0.44436379190973
  H           7.89483680767336      3.44468663849410      0.65740962920828
  H           8.69778847874795     -1.13665764903676     -1.75609137326148
  H           7.01244214053285     -0.79054837488818     -2.15927368246183
  H           8.12310689449429      0.53165154560092     -1.84493991912134
  H           9.01926940970014     -1.89557245064182      0.46241043709054
  H           7.92652797055957     -1.31851082790693      1.83445391384901
