81
Coordinates from ORCA-job 16053313 E -1285.416069504167
  O          -4.48137191593524     -1.65775030333582     -2.09949650071718
  O          -7.05483519937590      2.11929099840560      0.74234043329376
  C           0.31848947994160     -1.18546504445054      0.49211161158817
  C          -0.41647543902680     -0.60219003461350     -0.73717354682627
  C          -1.93021189929859     -0.77496993481575     -0.70438278153987
  C          -2.48531329888870     -0.07688520400935      0.56045293804647
  C           1.79013246401054     -0.87575447542352      0.09514804408453
  C          -0.22493687889633     -0.45259276044728      1.72293612486260
  C          -4.04475641990809     -0.18420280277994      0.65026270936073
  C           0.36692822130254     -1.13855890931056     -1.93546111401907
  C          -1.75340255228608     -0.55530653015944      1.82258660193400
  C           1.82704820996652     -1.19270377926534     -1.42704297796133
  C          -2.57781453352781     -0.22750376976435     -1.97589479386291
  C           2.93422665501555     -1.55654331447403      0.86385331672849
  C           0.11183484468447     -2.70109604335704      0.63454026610645
  C          -4.59059237657336      0.35558154902246     -0.66539360586894
  C          -4.10044023796281     -0.28446197795031     -1.94203448656599
  C          -4.63004337682272      0.62875398995718      1.82625050364058
  C          -4.48764874192832     -1.64512667317396      0.88240297936188
  C           4.31137022366250     -1.21083649343974      0.26142228997835
  C          -4.73223225714842      2.12000846797869      1.55261484821427
  C          -5.33918452060315      1.45617199465548     -0.76052890420877
  C           2.91901404348122     -1.26408836541530      2.36747444160954
  C          -5.68224919762544      2.35902989870309      0.38368559916107
  C           4.67744400592959      0.27371206747495      0.25741938316697
  C           6.09881269661478      0.54579599277467     -0.26436731492178
  C           6.25322605982944      1.96065987344914     -0.87159630496242
  C           7.14020462167272      0.24948064280440      0.82646662654705
  C           5.85241050882174      3.08100319655044      0.09164242219512
  C           5.49804709011343      2.09323929184208     -2.19666983906587
  C           8.58551325254798      0.19036100168850      0.33666674559798
  H          -5.43456183691881     -1.71907059554657     -1.97324935995801
  H          -7.32140245260582      2.79711644135819      1.37426197760184
  H          -0.22942528959527      0.48086421244063     -0.69998680033974
  H          -2.15960844959025     -1.84154645058347     -0.65165369338378
  H          -2.25655298394406      0.99083098595359      0.44181153870966
  H           1.90824707920070      0.20610424460361      0.22085852670560
  H           0.21171275419934     -0.83693207500936      2.64504940005140
  H           0.06351675349651      0.60238654356806      1.65644106944774
  H           0.01024917505297     -2.13275008050102     -2.21452987303552
  H           0.25928226872855     -0.50671087924123     -2.81707782675883
  H          -2.07777587256020      0.02989950446887      2.68410623464969
  H          -2.03034781143843     -1.58892479807370      2.03876750089848
  H           2.46483006280166     -0.48538044543669     -1.95794607307131
  H           2.25873985249211     -2.18134352678226     -1.59539783405369
  H          -2.28300365610855      0.81830770035839     -2.11151305834108
  H          -2.23055530209403     -0.78041820371982     -2.85075161168662
  H           2.81551623633678     -2.63834452693080      0.73816667060007
  H           0.61643827279502     -3.07146189046016      1.52833286708317
  H          -0.93994395351597     -2.96664982841936      0.72379535714016
  H           0.51288278561132     -3.24922526482889     -0.21815425284097
  H          -4.49463120918640      0.29028597996137     -2.78822174031503
  H          -5.64044231962595      0.26032910016409      2.01874171833214
  H          -4.05603794620937      0.43405020741958      2.73152477919431
  H          -4.24330053704925     -1.94613207871070      1.90253211345887
  H          -5.57045578120001     -1.72488737474820      0.77049811825122
  H          -4.02861773189327     -2.34432351819107      0.19042958782103
  H           5.06673423070178     -1.77243294125385      0.81891259323796
  H           4.36207857659300     -1.58041490079054     -0.76596068483835
  H          -5.09409541780793      2.65131814093383      2.43808367880789
  H          -3.75456230045443      2.54521726427121      1.30677065229996
  H          -5.69092219353944      1.76905747513005     -1.73874242887402
  H           3.83326051850331     -1.63418261549007      2.83756563882186
  H           2.85092211658595     -0.19360247070774      2.57070955324349
  H           2.07867414597136     -1.74565066885261      2.86497564484091
  H          -5.58609014738020      3.39690880582952      0.03885266756308
  H           3.95327422333124      0.81029796444927     -0.35745166302112
  H           4.58287486620879      0.68669818679216      1.26549591588465
  H           6.28663946895865     -0.15910208433710     -1.08508559463221
  H           7.31434083948872      2.09292663116113     -1.10330253134173
  H           7.05112658820090      0.99439293932425      1.62326925696471
  H           6.89211112478122     -0.70884018880280      1.29000291942181
  H           6.39958975316931      3.02593326893530      1.03410374224711
  H           6.05788500906231      4.05771849254792     -0.35157064332471
  H           4.78545841020304      3.04377176121806      0.32233843272675
  H           4.41769995254034      2.00965507018703     -2.05783029387992
  H           5.69169451322657      3.06421622058594     -2.65790088336639
  H           5.80393153167713      1.31867802873815     -2.90362885909906
  H           9.25965637554521     -0.10088416627835      1.14472051137754
  H           8.69549592673418     -0.54182109465993     -0.46763854863564
  H           8.93141124873277      1.15286494883520     -0.04372512754299
