33
Coordinates from ORCA-job 160717 E -992.953400798856
  O           2.67038483950172      2.22999474165514      0.31553368910411
  O           0.07169145089714      2.41558847541105     -0.59059527337108
  O          -2.46876129917267      2.69260962386853      0.15027567012982
  O          -0.39402988726283     -2.85748969198971     -0.59684555398884
  O           4.44266013347693     -2.18033701583172      0.27080730643822
  C          -1.36326767685757      0.59457880725306     -0.13947809242708
  C          -1.49288843696053     -0.80133253511965     -0.22474899297798
  C           1.16280756244268      0.37132961124032     -0.11474881986056
  C           1.04145680541545     -1.02809161688601     -0.18861261092016
  C          -0.03099877666074      1.23941138257926     -0.29540787514495
  C          -0.29110815681999     -1.66495899247031     -0.37460534109603
  C          -2.73130291841817     -1.42560044503343     -0.16872114361242
  C          -2.54043649833822      1.34702132511977      0.03351287579773
  C           2.44603270232424      0.90061808536176      0.12075961055211
  C          -3.89169190565311     -0.67941300041239      0.00306833949008
  C           2.13755642202578     -1.86895639677808     -0.07778855802069
  C          -3.77411296826054      0.70106123304626      0.10716877505243
  C           3.53936182144311      0.05331891759441      0.25984829661019
  C           3.39410372991355     -1.32511897036047      0.14986434525663
  C          -5.23433363516831     -1.34623883460563      0.10747955557377
  C           2.98193859150055      2.98756216218812     -0.85735081228551
  H          -3.35366582874803      3.04154358543190      0.31131112777958
  H           5.25446818090684     -1.68565229585018      0.43255698714248
  H          -2.76777119401042     -2.50234257792297     -0.25849281428266
  H           2.00336247510956     -2.93795423150659     -0.15507265678990
  H          -4.66671410690428      1.30415617988462      0.24524178191251
  H           4.50467800250367      0.49848692910976      0.47166770303689
  H          -5.47186701374499     -1.56998906459767      1.15135801198832
  H          -6.02899445336310     -0.70791133224511     -0.28071970228353
  H          -5.24850855054585     -2.28812286672978     -0.44073880177362
  H           3.15741169385932      4.00642629713339     -0.51973296194850
  H           3.88694657173837      2.59695837685095     -1.33378972452040
  H           2.14537732383043      2.97285513461138     -1.55462934056094
