32
Coordinates from ORCA-job 160710 E -618.478961213195
  O          -0.29815737863766      1.26991866884332     -0.10016701926555
  O           1.43155582025686      2.58416384998752     -0.65161179585723
  C           0.83762857673002     -0.63337144991063      0.74026729062509
  C          -0.52555216193499      0.07685066313831      0.70121696456368
  C           1.79617146933183      0.56396371647894      0.69858547012260
  C           1.10656577405452     -1.57846500393388     -0.43194655416874
  C          -1.70346681767713     -0.68518688014623      0.13377648321460
  C           2.55967396518163     -2.05404408150984     -0.43011613386286
  C           1.01470717394791      1.60805982554797     -0.10054708884448
  C           3.16418667886362      0.28718329303847      0.15537558231020
  C          -3.02123778198419      0.08103972143637      0.22631411926896
  C           3.51711415104409     -0.90124895560667     -0.32126164470451
  C          -4.20226486973200     -0.69431005247543     -0.35257880880208
  C          -5.51966670479001      0.07038293334150     -0.25695680574249
  H           0.93892295373217     -1.18692103364435      1.67644025913891
  H          -0.77441779638371      0.42459912533113      1.71071986335929
  H           1.89278931021848      0.98950471130987      1.70635481918168
  H           0.42855791772973     -2.43251922019783     -0.39279131270400
  H           0.91022391648672     -1.05618187230846     -1.37293242063406
  H          -1.49768649074664     -0.94087493080061     -0.90834540180413
  H          -1.78634610968664     -1.63030689662275      0.68178352442686
  H           2.72758049488795     -2.75832697458910      0.39471289133380
  H           2.76529650256485     -2.61596373781058     -1.34487582548202
  H           3.86836176493880      1.10962160666443      0.17475658829167
  H          -3.22604857666804      0.32412636498429      1.27534978764732
  H          -2.91791022788300      1.03557473139422     -0.29623015986948
  H           4.53285442974951     -1.05608482645939     -0.66806467168516
  H          -3.99400594879304     -0.93503041680481     -1.40034907666526
  H          -4.29610891380323     -1.65397530572414      0.16741283911961
  H          -5.76821613442551      0.29655184348851      0.78301380079683
  H          -5.46180126679721      1.01907592432401     -0.79594531048320
  H          -6.34641971977569     -0.50356934076417     -0.67972525282584
