27
Coordinates from ORCA-job 160782 E -744.286185769059
  O           2.69171482436335      0.03457835450388     -0.50780601918913
  O          -0.95046080759777     -3.26419599220104     -0.92530796861773
  O           1.90039699853624      1.48719803443515      1.01011906549865
  N          -2.02030700734406     -1.31605164023924     -0.45433179135191
  C          -0.84351086864160      0.71040903608739      0.10061194040126
  C          -2.05514241400761      0.01943100703770     -0.12261296199025
  C           0.38425703756503     -0.04356003804678     -0.05452995276209
  C          -0.91159084080572      2.07578159873668      0.42519872729311
  C           0.35822525036825     -1.35155714357587     -0.40313730670128
  C          -3.28228647122076      0.68101010696045     -0.01296505278109
  C          -0.88124277188789     -2.08333837070553     -0.62121276102388
  C           1.71458383484294      0.59475191603549      0.21888895065392
  C          -2.12615145410704      2.72260247609444      0.52767200394424
  C          -3.31466365565168      2.02153371630994      0.31026115423584
  C           4.03083985439542      0.52812375623626     -0.26856364848278
  C           4.96437087044911     -0.23286105778713     -1.17956114399860
  H          -2.89046777705710     -1.80663451851553     -0.60551094626724
  H           0.00469086477290      2.61227832206900      0.61098165616486
  H           1.26748459109590     -1.91829732685470     -0.52773461219460
  H          -4.19941859315564      0.13143407799829     -0.18682305113324
  H          -2.15559859364317      3.77377876806807      0.78051595367553
  H          -4.26733230032591      2.52831110839725      0.39366213571633
  H           4.04400335038207      1.60070736807567     -0.46658570855097
  H           4.27047414010772      0.38075085373347      0.78546874675942
  H           5.98757368850134      0.11558167261226     -1.02828609913075
  H           4.93148927894085     -1.30242143623301     -0.96828937125125
  H           4.69989397112482     -0.07871164923256     -2.22636693891635
