42
Coordinates from ORCA-job 160799 E -662.360297508288
  O           0.14428397061995      2.47225576021213      1.40802365443268
  C          -0.80524321405172      0.91787171147437     -0.24527854709066
  C          -0.06702121248543     -0.34023240495954      0.25444388744074
  C           1.30763749339191     -0.48878281761448     -0.44085464315732
  C           0.01390184532657      2.20527473748727     -0.00015501494024
  C           2.12873767883990      0.78231304055759     -0.19427536998082
  C           1.39769591599438      2.04372322829340     -0.64170238667358
  C          -2.21437537485901      0.95457698735965      0.34465441896779
  C           2.07594570958964     -1.77937680564719     -0.06940443806373
  C          -0.94550747848192     -1.55759444640698      0.12268140835807
  C          -3.03232340825883     -0.24448072654636     -0.12642911940019
  C          -0.67021587507173      3.44193579529293     -0.56842455242538
  C          -2.26506824650602     -1.53680747221930     -0.06187672594956
  C           3.37950057595031     -1.91579322174098     -0.86176915437921
  C           2.34160837230741     -1.93187780463397      1.43060837404223
  C          -3.07074729633539     -2.79294539000205     -0.21495329954656
  H           0.64590099783091      1.75795247665007      1.81462984003914
  H          -0.90063069507068      0.81806664951475     -1.33439888317388
  H           0.13433902934663     -0.20310462663932      1.32778247092585
  H           1.11079367668664     -0.54950326696333     -1.51966945063191
  H           2.37720797926234      0.85694596997727      0.87051004279252
  H           3.08483057752926      0.72515966862036     -0.71586719365741
  H           1.27141194068440      2.01756004853087     -1.72883046447946
  H           1.99178095000385      2.93066323786233     -0.40881695098962
  H          -2.14159310434704      0.95251102725166      1.43497560199966
  H          -2.72829426607707      1.87508324443000      0.06775533178048
  H           1.44635861911079     -2.61848200209285     -0.37530017445437
  H          -0.46086102008886     -2.52403495690354      0.19536238700131
  H          -3.94441429499914     -0.33758772179771      0.47288454822468
  H          -3.37705536267288     -0.08753933216985     -1.15720270132985
  H          -1.57904079087299      3.67519747094700     -0.01638384875758
  H          -0.00225616973500      4.30081164025491     -0.49021383228115
  H          -0.92466734166145      3.29432149484506     -1.61937140843979
  H           4.13329696087021     -1.19757933368007     -0.53358177741446
  H           3.80289656632695     -2.91365682835594     -0.72951802194480
  H           3.21234487632374     -1.76266970467908     -1.93071758827476
  H           1.41935722473335     -1.93052637812587      2.01325246589928
  H           2.85457656466207     -2.87499214504549      1.63036742745139
  H           2.97978204958674     -1.12999882906117      1.80851030940309
  H          -3.82054793825134     -2.87667395843425      0.57831035485180
  H          -3.61931857587039     -2.79022285825985     -1.16271666796101
  H          -2.44173690928105     -3.68322015758245     -0.18797630821341
