53
Coordinates from ORCA-job 16078 E -968.598945610018
  O          -0.64743267578649     -1.87068322836760      0.62144468996039
  O          -0.43699750866134      2.60658331486636     -1.04801232937173
  C          -2.76954908820376     -0.90522079110401      0.07316267683847
  C          -2.12895699395996      0.35763051080541     -0.51613088711473
  C          -1.87329700321104     -2.13101221626436     -0.11266374318623
  C          -4.19947147376714     -1.01167934741090     -0.44812412608004
  C          -0.66657997123771      0.43351011347390     -0.13186245288565
  C          -5.03056300039801      0.15820896937332      0.08859385752157
  C          -2.97203854838657      1.54833202306541     -0.11007982649844
  C          -4.27508887932134      1.46131701632030      0.15444781500774
  C          -0.02566779920440     -0.67392166801399      0.43525570338703
  C          -2.44591758065518     -3.36807219362651      0.56380240273934
  C          -1.52058212210996     -2.42664804701489     -1.56907771268616
  C           0.13248649817649      1.55767748331508     -0.37080698550888
  C           1.30509015923531     -0.62172483946237      0.84902871757177
  C          -5.08482452081629      2.65870981823701      0.55857873034976
  C           2.05494959521686      0.52829513976261      0.66580880673669
  C           1.45897696380328      1.61797955689065      0.03460886648022
  C           3.50719021389542      0.57301047539007      1.06029506182497
  C           4.44147238065380      0.12349531747544     -0.07071900540936
  C           5.91632931747948      0.16653860056451      0.31756289826243
  C           6.85226390065494     -0.28119649889376     -0.80308003888382
  C           8.32573206097974     -0.23526644245013     -0.40705715503567
  H           0.22100156600658      3.30265232034791     -1.15117378967879
  H          -2.82301588389253     -0.75862149260879      1.15852135292113
  H          -2.17575470826506      0.28565150084855     -1.61235662854669
  H          -4.18989403568670     -0.98977223926038     -1.54170916468561
  H          -4.66388358837820     -1.95339079976878     -0.15249970760496
  H          -5.93188551400768      0.29135241449805     -0.51944612149020
  H          -5.39477276467573     -0.07882420173769      1.09674283123813
  H          -2.48339612765590      2.51016609964362     -0.05797242128441
  H          -2.75109157082903     -3.14105796848151      1.58630723801535
  H          -3.30667002839818     -3.75065248850635      0.01621882137347
  H          -1.68590396211879     -4.14916031003739      0.59729627252397
  H          -0.89248839002544     -3.31642739273729     -1.62372720190774
  H          -2.42485920391975     -2.60673304341942     -2.15238243402785
  H          -0.97725311314237     -1.59983896040976     -2.02481999671334
  H           1.73672302048412     -1.50590683292742      1.29974838836254
  H          -5.55694453736198      2.50054667595295      1.53405257906591
  H          -4.47014192891048      3.55694838183737      0.61850898494598
  H          -5.89528031445536      2.84446469056487     -0.15393124247950
  H           2.03456613669267      2.51901434240517     -0.15318436182647
  H           3.77543146398879      1.58973062193817      1.36227040733346
  H           3.66859438284354     -0.06669583104374      1.93217613502121
  H           4.16841021350694     -0.89221898739668     -0.37362969419457
  H           4.27206760494653      0.75776908521449     -0.94690157997071
  H           6.18185176128323      1.18497091462764      0.62457282975015
  H           6.07840244030175     -0.46641561026159      1.19776736229509
  H           6.58599086942257     -1.29862043905942     -1.10816915029269
  H           6.68878191791578      0.35141742760255     -1.68196643519773
  H           8.52251109169102     -0.88477867523826      0.44969709715330
  H           8.97098099072244     -0.55991143404236     -1.22579761353091
  H           8.62614828754103      0.77788616452395     -0.12780372058723
