73
Coordinates from ORCA-job 161177 E -2063.923287606498
  O          -1.82679528032554     -0.48918129259614      0.37061305572561
  O           0.75089012641652     -2.99339119590801     -2.36959933110237
  O          -3.96592684258256      0.14292844580341     -0.10982594648828
  O           2.57686974895476     -2.08197670627499     -3.29891096602728
  O          -1.44594570719463      4.64302839171261      0.39874555692530
  O           0.70569678978282      5.14127760282588     -0.27322172508415
  O          -2.80378385547134     -2.78522413841058      1.75929512790119
  O          -5.54514881115881     -2.54877210430145      2.56448915450787
  O          -7.21480324269517     -1.32444057608691      0.62270583200308
  O          -5.51411557468013      1.57503947346674     -1.94830142555332
  O           3.15805852526635     -0.18046100417249      3.11491236948401
  O           6.02275176177980     -1.63380550323437     -0.27218425051467
  O           5.47887221442960     -1.25913838574785      2.33040500399070
  C          -0.04008514772523     -1.18796000846485     -1.09649452269800
  C           0.91999023026228     -0.67543165859001     -2.15297821463831
  C          -1.10635319346475     -0.15274021938716     -0.83149187131810
  C           1.76461309942161      0.47850656461815     -1.61045137579011
  C          -0.50689384894542      1.23948555938752     -0.69749054930545
  C           0.79830348678707      1.53916647995259     -1.10268047235444
  C          -0.43412570503563     -2.54275921074953     -1.67053592433125
  C           1.56582323254242     -1.94438273259904     -2.67439915794805
  C           2.75507607042999      0.03610454077752     -0.53932960741830
  C          -3.11874613950462     -0.95410428135146      0.18567639898860
  C          -1.34753846808381      2.24578383812555     -0.18080870295140
  C           1.28670808684488      2.85437769821900     -0.99658293481449
  C          -3.56991447288614     -1.62245277942829      1.47713978657987
  C          -5.01878158046910     -2.05497863762148      1.34099630390794
  C          -5.89703834569729     -0.88995082585551      0.90776655985849
  C          -5.32421195183918     -0.24387680768101     -0.35165071632797
  C          -0.84427730273723      3.51435908595823     -0.09515595275683
  C           0.44995667263286      3.81557501645717     -0.49780426277662
  C           3.94972728447609     -0.55650384223460     -0.93372110787119
  C           2.46595405670803      0.18165451627282      0.81342131515648
  C          -6.06196494063814      1.01334119579589     -0.76840798640774
  C           3.36733491987648     -0.27449671009480      1.77498439648765
  C           4.84898515366339     -1.02163683772574      0.02347106495910
  C          -0.55204228311377      5.71775149742622      0.09515551623913
  C           4.56898324605424     -0.87306400597231      1.38723566391042
  C           1.97980671754693      0.46744512453531      3.55987885046065
  C           6.33680561062275     -1.84610581713441     -1.64131878643711
  C           5.40418672158955     -2.63666574710022      2.69272596032042
  H          -1.89342452163310     -2.50904775202993      1.91732538039116
  H          -4.98213693753939     -3.27539348258114      2.85759557507471
  H          -7.51003813788671     -1.85685690869872      1.37198194687030
  H          -4.58116816443493      1.75107184683012     -1.77739632721154
  H           0.51712820231765     -1.34558427049147     -0.16996124672553
  H           0.33921139838660     -0.28969067721503     -3.00339914045075
  H          -1.82408084196349     -0.13911476372594     -1.66028813020747
  H           2.33900657442083      0.90219830130162     -2.43687321516038
  H          -1.25182146449086     -2.46538025834496     -2.39370240098697
  H          -0.68352168234071     -3.29551327925222     -0.92625641349546
  H          -3.16545488134878     -1.67737703153727     -0.64468549986249
  H          -2.34730736931948      2.00744394330173      0.15119282849589
  H           2.30206668909138      3.08886901055115     -1.28577662724445
  H          -3.47995663768218     -0.88819930523522      2.28554211828773
  H          -5.07599824680150     -2.83460902944110      0.56885374050736
  H          -5.90300561175276     -0.14445722460928      1.71446634279710
  H          -5.35675486078350     -0.96752617458651     -1.17693344820372
  H           4.15428408748814     -0.68068560241604     -1.98463185757957
  H           1.54844789547429      0.66105879373414      1.11337662399696
  H          -6.03846843123520      1.73149920336410      0.06134642300446
  H          -7.10051196214206      0.76621153075503     -0.98041565348275
  H          -0.94816813845665      6.29418274756199     -0.74838220086129
  H          -0.41994008704661      6.34179395584197      0.97802352637617
  H           2.02063096406863      0.44781766479561      4.64644760797577
  H           1.93984985537411      1.50502945671750      3.21580117233091
  H           1.07993574003763     -0.05520228290465      3.22028409429360
  H           7.28442868679078     -2.37931833957598     -1.64815011983840
  H           5.57090708326425     -2.44719593784221     -2.13799383010635
  H           6.45090003194591     -0.89713291801469     -2.17292444841188
  H           6.17971416939458     -2.80284009555937      3.43828238092688
  H           4.42682904075530     -2.86939062876685      3.12572777216005
  H           5.58711049620793     -3.27735549453776      1.82633789984883
