36
Coordinates from ORCA-job 161172 E -1032.230336447290
  O           0.28338157496513     -0.59429568839184     -0.01686727548406
  O          -3.88557209616688      1.87588918338965      0.19669539937970
  O          -3.91422987509909     -2.77645965972195      0.02628819891843
  O          -1.32293828670240      3.13229655619167      0.21202296305873
  O           6.56512980602548     -0.74038088403089     -0.10144146575048
  C          -1.71341450479280      0.77408320689497      0.05716154803743
  C          -1.07656564637770     -0.47128772507769      0.00298175507676
  C           1.07985721252593      0.50290146144524      0.05144360830666
  C          -3.13471494162228      0.74776760633524      0.09067469317810
  C          -0.88143726150032      1.98969364299905      0.14176349388380
  C          -1.75371554344589     -1.68691305959218     -0.01632693441086
  C           0.54969191818298      1.73935127831185      0.12930271166431
  C           2.50435941656342      0.16221078777014      0.01834983021886
  C          -3.13826935160940     -1.66836186158294      0.03088015210820
  C          -3.82077206367257     -0.44821765377906      0.08166965289925
  C           3.48253715003011      1.10455620865797      0.36131366358116
  C           2.92574828987403     -1.11429948405753     -0.36309693676290
  C           4.82643829502249      0.79191198330829      0.31680548748871
  C           4.27231493085870     -1.43665266578229     -0.41292379483153
  C           5.22942428180555     -0.48427175197866     -0.07442277470078
  C          -3.98725583250975      2.68634995339629     -0.97774016521464
  C          -3.27964811622378     -4.04540726968294     -0.02806762588906
  H           6.71909321308184     -1.65013790246926     -0.38128553199315
  H          -1.17773040425627     -2.59758778301387     -0.05217566918410
  H           1.18728122316351      2.60882445814662      0.16286549394697
  H          -4.90057804638521     -0.43961515309719      0.11902189625328
  H           3.18943777275990      2.09356688865909      0.68411763812712
  H           2.19135252652265     -1.85949773490118     -0.63051451631256
  H           5.57828766514045      1.52013211477695      0.58858974129316
  H           4.58034485364858     -2.43098433986284     -0.71662083603314
  H          -4.64537140724136      3.51116463303476     -0.71407201727249
  H          -3.01447844645541      3.08021317630535     -1.26627269876231
  H          -4.43225334290030      2.10670392809817     -1.79273934929273
  H          -2.63465414291356     -4.20246247955898      0.84086414558700
  H          -4.08065955258349     -4.78017543868475     -0.02251799890688
  H          -2.69111026771228     -4.15436753245528     -0.94331948220592
