72
Coordinates from ORCA-job 161294 E -1333.775520862780
  O          -2.99373501149840     -0.16285736815380     -0.78856468868453
  O           4.68797045869657     -2.23508334645843     -1.81235671781488
  O           7.97572044686493      1.19486950141357     -0.01503656151107
  N          -6.05264284774952      0.36202991892694      1.10677088521841
  C           2.39631148360329      0.10802313136547      0.53161812948178
  C           1.79071247915993     -1.03950005254405     -0.28354947226858
  C           3.71711733402687      0.63511658540194     -0.05310725578272
  C           0.45135335275077     -1.26633364246069      0.41855637216181
  C           1.20981974675442      1.06374611251459      0.73588867221000
  C          -0.00910167921320      0.15235394995243      0.68833631760540
  C           4.69775433297437     -0.58227778404815     -0.06893522400240
  C          -2.41604311145533     -0.47219335531239      0.52691920792791
  C          -0.61806934910739     -2.05387933611794     -0.31258494545877
  C           2.74925493624060     -2.22085177736654     -0.40409148505654
  C          -1.28752538034479      0.53252187224878      0.71535702917705
  C           4.31836183254416      1.70927709416606      0.87156031550147
  C          -1.91465422575268     -1.91887589725067      0.47571951811850
  C          -3.59149021667579     -0.26339135085152      1.56849407156730
  C           4.11507767546207     -1.73940610613525     -0.86985507395231
  C           6.11502890691673     -0.20587761763656     -0.48247083605301
  C          -4.66007536604809      0.41183395144720      0.69746667871263
  C           3.52570611062745      1.20130006860398     -1.46753085188982
  C          -4.40119949431018     -0.21016077794524     -0.66434094613829
  C           5.75795834354188      2.08406444726424      0.51004816572990
  C           6.66870872343442      0.86000002687200      0.45021930829416
  C          -5.16143726957662      0.53172041394366     -1.73913726569976
  C          -1.67723877525836      1.98130970999216      0.81548739842100
  C          -4.11704092977934     -1.51346723433493      2.27168363510431
  C          -6.65636891316925      0.52409007240267     -1.36579067635778
  C          -6.87714202342798      1.01413568376975      0.08155870713350
  C          -7.48489719660953      1.34594875184399     -2.34858821417500
  H           8.34113390355452      1.87762517857135      0.55836847554187
  H          -6.35147137675257     -0.60072119318832      1.21909361162776
  H           2.64464245839696     -0.30776698326753      1.51754576170819
  H           1.56642831975991     -0.67148319363139     -1.29073588371668
  H           0.66193379553051     -1.76837513500586      1.37597665818716
  H           1.28431113098990      1.62051752918579      1.67176754293424
  H           1.15560811429217      1.80307815937141     -0.06742948221846
  H           4.73016918962331     -0.94138044995437      0.96957968440295
  H          -0.75244191284358     -1.65109221549724     -1.32003736977851
  H          -0.33857593264390     -3.10593678925355     -0.40944501659232
  H           2.87322946911573     -2.68319929104388      0.58300300023769
  H           2.39345273714538     -2.98429785917356     -1.09534467860423
  H           3.68786628831630      2.60191922509382      0.85414980864329
  H           4.29292788083072      1.33124479747870      1.89978847833343
  H          -1.73917941322094     -2.28418110217843      1.49062725890756
  H          -2.70212445902418     -2.53891624421856      0.04520067713174
  H          -3.25323372936310      0.42065334997578      2.34586202412731
  H           6.75936175282548     -1.08514440174155     -0.45896313995938
  H           6.13718898626829      0.16152527308998     -1.50933776114761
  H          -4.40643986537813      1.47223492102314      0.60715488356189
  H           2.79017434019072      2.00683330331723     -1.46383816766051
  H           4.45217112790263      1.61045436309431     -1.86432535512789
  H           3.18783425799750      0.44252178232966     -2.17280946535013
  H          -4.74325964491288     -1.25954969908737     -0.65186619836849
  H           5.79676691288443      2.58598197667895     -0.45962538029200
  H           6.14614069901179      2.79582697660008      1.24614384410710
  H           6.74075611338225      0.42907598235683      1.46112094831073
  H          -4.79323344769718      1.56210610494142     -1.79086301281642
  H          -5.01168318488428      0.08243194187568     -2.72411931025556
  H          -2.28640647657581      2.18803453964223      1.69909897691724
  H          -0.80418844971868      2.62813297914193      0.86603304052661
  H          -2.26460747761250      2.27328787388774     -0.05752266677520
  H          -4.94045683657769     -1.23254013566628      2.93040392563908
  H          -4.48287181568606     -2.27087808907919      1.57603184760043
  H          -3.35133739800319     -1.97836869843111      2.89177936684191
  H          -7.00243576352725     -0.51650908011535     -1.41162895082337
  H          -7.92767040495318      0.89062775599762      0.35356613166037
  H          -6.66397177006531      2.08852297082406      0.12371445964696
  H          -8.54938999039714      1.30236289846135     -2.10693922712115
  H          -7.18077520619416      2.39600108615403     -2.32848346084067
  H          -7.35806329560879      0.98316894592716     -3.37064307666659
