55
Coordinates from ORCA-job 161306 E -1006.956260004910
  O           7.29427580252977     -1.24652805025674     -1.01154325744309
  O           5.73056715554081     -2.77191792481999      0.38673030689655
  O           3.66425724309100     -2.02811476049308      0.52883088474415
  C          -3.00427228339179      0.30446635393834     -0.19357976910685
  C          -4.33872633309374      0.14766986233368      0.53102211291186
  C          -1.79962967690837      0.31804034001579      0.74396245679584
  C          -5.54371378009937      0.13601112769388     -0.40614266722599
  C          -0.46524094266611      0.47231004995710      0.01867103837433
  C          -6.87807498180388     -0.02176929996798      0.31844131781854
  C           0.73814405683442      0.48606091165561      0.95754767655924
  C          -8.08321939669864     -0.03191045294415     -0.61861837178468
  C           2.06895719524440      0.62546308886556      0.22577433239059
  C          -9.41752977824007     -0.19008352623962      0.10577160472993
  C           3.26425142480115      0.65779691438931      1.18897790969437
  C         -10.62382075415326     -0.19984042439402     -0.83064267875677
  C           4.58296303054458      0.74033457268947      0.46445306305321
  C         -11.95231087462563     -0.35868757455794     -0.09578884628623
  C           5.33094064888777     -0.38537601771956      0.05119715723188
  C           5.06926011422502      2.01753685576817      0.18481964499311
  C           6.54582374405043     -0.15774639148959     -0.61995549945727
  C           6.25673208914028      2.21203703982998     -0.49869663740449
  C           7.00236422789899      1.11902885747523     -0.90606522909580
  C           4.82471349301364     -1.77669395965744      0.33011465350758
  H           8.12878979229416     -0.95191713231663     -1.39237332060029
  H           6.59464548120480     -2.46863920854942      0.06216362709374
  H          -2.88863407254306     -0.50952652867272     -0.91829076489826
  H          -3.01754739921123      1.23109487054781     -0.77906042008325
  H          -4.32588077139940     -0.77974037252032      1.11493957004402
  H          -4.45360037484896      0.96059145492228      1.25729779140037
  H          -1.91453881909325      1.13273534533032      1.46835754471176
  H          -1.78655295062968     -0.60814267987116      1.32951307399569
  H          -5.55680000736091      1.06373799805007     -0.98978579201802
  H          -5.42863801008635     -0.67652396155174     -1.13267859795056
  H          -0.34875590956203     -0.34443305360596     -0.70223471926376
  H          -0.47799756512030      1.39742646116923     -0.56936071638890
  H          -6.86537590159739     -0.95002935347300      0.90106207224211
  H          -6.99266681966232      0.79008883192541      1.04588524795671
  H           0.62690230143597      1.30543297662490      1.67779777114565
  H           0.75173225052323     -0.43897253787040      1.54330052253172
  H          -8.09596889225884      0.89654555202173     -1.20109012460371
  H          -7.96848270542453     -0.84363582745214     -1.34616234250996
  H           2.19544400021388     -0.21190041549933     -0.46207520847840
  H           2.06759197396636      1.54047446396699     -0.37648392538499
  H          -9.40561879475311     -1.11879814028394      0.68806842109936
  H          -9.53281588614744      0.62134828138432      0.83384759165767
  H           3.17757318006585      1.54063623464314      1.82846882187940
  H           3.22355954228409     -0.21971667521893      1.82908837939650
  H         -10.63514511727053      0.72851019055307     -1.41167109126519
  H         -10.50783321135942     -1.01088027046079     -1.55746509799779
  H         -12.10817262785515      0.45736437367886      0.61450504942523
  H         -12.79620384831899     -0.36243366970388     -0.78865446211123
  H         -11.97982688640377     -1.29490539662452      0.46764149808637
  H           4.49469227458147      2.87312651649051      0.51515531657192
  H           6.60810246959366      3.21343293116873     -0.71099839385724
  H           7.93669988062179      1.25022314912552     -1.44024452496667
