37
Coordinates from ORCA-job 161409 E -995.387675823616
  O          -1.12621312318753     -1.65966090265558      1.11317628361883
  O          -2.51000759350037      0.27270631289594     -0.39812059399354
  O           2.27162473899519      1.34797455887125      0.20194856273909
  O          -4.57412690379874      0.86231185981372     -1.11648713884532
  O           3.82140758684177      2.89638084993433     -0.17362515740588
  C          -1.56269487526363     -0.37472293619102      1.64655117750521
  C          -2.89114233190728      0.02590504671961      0.99032758538562
  C          -0.39196002846491      0.61609215635586      1.42039043744271
  C           0.57786436711828     -0.21812121567530      0.64369255354865
  C           0.07333034650258     -1.50142117866548      0.51285599688182
  C          -3.42059748091666      1.29829587706741      1.64744990581676
  C          -3.89742650301175     -1.11683699880958      1.07616771625499
  C           1.79561112022462      0.08232193039641      0.07182013631366
  C           0.74431402229535     -2.51506698734924     -0.16655799949826
  C           2.51324991820528     -0.90796863005128     -0.62683107328619
  C           1.96664068415833     -2.19634575702521     -0.72940425849367
  C          -3.40446516008140      0.66610809394500     -1.32586762065839
  C           3.76876340014013     -0.52334784461314     -1.19208859326506
  C           3.49374674964846      1.75309095776736     -0.34266854749592
  C           4.23731905323278      0.73472611732839     -1.06006377910387
  C          -2.72623817455695      0.82663056920206     -2.66065960429923
  H          -1.75531744920743     -0.53647417242690      2.70751425496274
  H          -0.70543945863100      1.49439828143802      0.85806679831155
  H           0.03049691931072      0.96443626042259      2.36401506551148
  H          -3.55066865171689      1.12761268496893      2.71770202992567
  H          -2.72989793152228      2.13114477385611      1.51560069913493
  H          -4.38100283702648      1.57258662681082      1.22021156578886
  H          -4.04716206199645     -1.38976883642225      2.12251290638904
  H          -4.85192581899465     -0.81470957603221      0.65390839171570
  H          -3.52550212234887     -1.99135903543829      0.54614165598958
  H           0.31809829801649     -3.50464520681557     -0.24629505946846
  H           2.52451044981398     -2.95254741773130     -1.26764009824988
  H           4.34326237329476     -1.26610511374590     -1.73403341652171
  H           5.18157190506442      1.05170555016584     -1.47714822819436
  H          -1.93259953716357      1.57159489896646     -2.58640113548633
  H          -2.26176718342475     -0.11503016200170     -2.95623267934020
  H          -3.45647070614147      1.13393856472387     -3.40395973963058
