24
Coordinates from ORCA-job 161658 E -687.140753595030
  O           0.61398199369352      1.72003577425110     -0.51984639858255
  O          -0.45279384835640     -1.21763676149271     -1.14700585122675
  O           1.98066820450991     -1.53298124740897      0.33970313501580
  O          -1.91934448316272      1.49007753785665      0.71254018755497
  O           4.38570158711929     -0.02754296398444     -0.02730357713963
  O          -3.97654704572647     -0.16656315940780      0.62428339610218
  C           0.64831479575823      0.52877011573616      0.24805422556560
  C          -0.56916480625805     -0.39714908858507      0.00160353259476
  C           1.96139096572843     -0.16469243804340     -0.11263170387112
  C          -1.84260940892354      0.43319559281985     -0.21625112549264
  C           3.18090256641008      0.57193647216146      0.41142113715508
  C          -3.07145733137772     -0.43584970339938     -0.12905705681705
  H          -0.08148242342302      2.28191215921273     -0.15418473575360
  H           0.25412011798070     -1.85271904337638     -0.97119453872522
  H           1.93142346513907     -1.54160637942320      1.30430766683785
  H          -2.79406584139130      1.42559482696375      1.13153077716670
  H           4.29688754008957     -0.98085105305592      0.09637972924943
  H           0.64663443892508      0.77492901693059      1.31834950545123
  H          -0.69624312010453     -1.01631097784084      0.89952117706121
  H           2.02554256950456     -0.22918470646004     -1.19914502935812
  H          -1.78559025241786      0.82213139848855     -1.24271656716730
  H           3.13493460104129      0.60474717934611      1.51250328211296
  H           3.17459791323376      1.59728134571609      0.04507047669482
  H          -3.09268719799188     -1.32290589700489     -0.78192964442861
