81
Coordinates from ORCA-job 161816 E -1285.421708631806
  O          -2.69599428040377      2.54753427358301      1.44837199327224
  O          -8.30967446496227     -0.60218852972595     -0.32674118493957
  C           0.39994457039695     -0.17914236178925      0.16815258381920
  C          -0.54514395567016      1.01947569564159      0.39932166123856
  C          -1.93139580592447      0.86448574785156     -0.20843052540697
  C          -2.60518725571700     -0.41891807183770      0.30748370620893
  C           1.68735097522443      0.35533726605192      0.86147142111424
  C          -0.27253390894236     -1.39170253123961      0.82179641210320
  C          -3.98518514121171     -0.66493075257875     -0.36856310133048
  C           0.28416126239428      2.24293866020034      0.01880802124645
  C          -1.67118337889677     -1.63890834860844      0.24291880397580
  C           1.71598167211546      1.86131709824049      0.46041653304847
  C          -2.81327838378701      2.08450299210905      0.08770269289773
  C           3.03067807285111     -0.34658959044552      0.59548902245022
  C           0.66717566474046     -0.43633987910299     -1.32301457643877
  C          -4.78873127044541      0.62939463348769     -0.43060129791159
  C          -4.77441605552281     -1.69130946903404      0.48320049532898
  C          -4.24988232043927      1.83277055856500     -0.23346173019955
  C          -3.82383780818229     -1.19983105651842     -1.80776713926575
  C          -6.25597177773473      0.50234444957934     -0.75505661685018
  C          -6.23933902522144     -1.84988278063863      0.08191452668993
  C           4.14973731353955      0.35910230239012      1.38308360622498
  C          -6.96198560902035     -0.51190052912157      0.13344737861238
  C           3.01060295672984     -1.84175021337086      0.91843543964048
  C           5.57471378161678     -0.15924487244631      1.14680421491339
  C           6.03856342499307     -0.18421388569123     -0.31851102030438
  C           7.39438833533092     -0.90880671446821     -0.50249269178464
  C           6.02637949986268      1.22996711386734     -0.92001180753994
  C           7.30739204335452     -2.39492947407573     -0.14400312268474
  C           8.55506271300072     -0.24245916234472      0.24009510066185
  C           6.40092143566787      1.30918114677736     -2.39860127825042
  H          -3.30102253460258      2.02510656213783      1.98634745314812
  H          -8.77774497952517     -1.24512261699496      0.21725799264062
  H          -0.69198722067361      1.07152033932346      1.48329875167963
  H          -1.84213763571992      0.81265295737355     -1.29856327994033
  H          -2.81461562013526     -0.24193971853571      1.37137264414933
  H           1.50000450597918      0.29388976983479      1.94087750575930
  H           0.31756456439868     -2.29998908431430      0.69963053456055
  H          -0.34532477330725     -1.20839915307761      1.89928763629307
  H           0.24046662822160      2.42190527915141     -1.05875606647832
  H          -0.07681637966224      3.14607755196933      0.50942199555660
  H          -2.12680543400807     -2.47680353373777      0.77450378835323
  H          -1.56187670459758     -1.96423881625555     -0.79209372635655
  H           2.05126951126115      2.47963731612272      1.29233777107459
  H           2.42981801806024      2.02081580100252     -0.35095140584505
  H          -2.44932338220968      2.92685144924876     -0.50532015342838
  H           3.24956484841325     -0.23470357929211     -0.47139250138896
  H           1.29288355240436     -1.32005888923626     -1.45678869790266
  H          -0.25104707747100     -0.60306288953451     -1.88402861627217
  H           1.18338763862126      0.40241511142214     -1.79046601046764
  H          -4.27567876992575     -2.66020265294635      0.43253779840155
  H          -4.72895004933346     -1.37140495631007      1.52958396705443
  H          -4.88768108292934      2.71079256313196     -0.26973914648107
  H          -3.42488948531602     -2.21420980339818     -1.81011392010664
  H          -4.77758803718167     -1.22494896869813     -2.33161196734304
  H          -3.15284772837283     -0.56525464657775     -2.38720846478343
  H          -6.74541744913409      1.47277331253111     -0.66833593694893
  H          -6.39010915939394      0.17188632769298     -1.79054720348113
  H          -6.32926311704762     -2.25469444272454     -0.92956919363333
  H          -6.72728357640923     -2.56422024517872      0.75329293440471
  H           4.12074409582322      1.42688133982607      1.16697863004610
  H           3.92545869467997      0.26691571272245      2.45213359452375
  H          -6.94910877557350     -0.14041137285501      1.16873274856529
  H           2.70991230761523     -2.01194654524953      1.95592278155776
  H           2.32163147810400     -2.38850314968731      0.27786899673431
  H           3.99593374481606     -2.28783568195498      0.78209299037564
  H           6.25711927062743      0.47122348015326      1.72449647249454
  H           5.66583685757116     -1.15989518440510      1.57118874870404
  H           5.31315286259634     -0.77604630031260     -0.88966318804921
  H           7.62447918488187     -0.86424929031548     -1.57098100941228
  H           5.02353542695938      1.64487502230588     -0.79834351947769
  H           6.68683216168747      1.88022705761400     -0.33743075339111
  H           7.17673534999765     -2.54907823073386      0.92891548666376
  H           6.47123440179677     -2.87692764728921     -0.65639179403185
  H           8.22240107405724     -2.91459854747678     -0.43670439094164
  H           8.41879637637911     -0.29349783336373      1.32238197202009
  H           9.49599544341752     -0.74490436841258      0.00546620225175
  H           8.66605888181308      0.80814185778418     -0.03332479627354
  H           7.44861908936076      1.06057550878525     -2.57385658272144
  H           5.79381631369927      0.62186721830936     -2.99422142800205
  H           6.23614740954967      2.31657389511878     -2.78602616439431
