17
Coordinates from ORCA-job 161815 E -496.212067629381
  O          -0.14601169731403     -0.66785465243648      0.79493226588234
  O           0.94538147808453      2.29106676983320      0.50462211055937
  O          -2.89997170267618     -0.63626054452590      0.14417885028754
  O           1.66636642782198     -1.87888380139691      0.26383564016865
  C          -0.79217320900624      0.55579157481041      0.35411504483229
  C           0.30786221016681      1.36168252547078     -0.35695092679246
  C           1.24689054522637      0.26309084335156     -0.85023709953887
  C          -1.97281339023649      0.18991314820025     -0.52834698690070
  C           1.00664068766848     -0.89814436752460      0.09781291221767
  H           1.31749072601725      1.82520746443241      1.26370859620223
  H          -2.42180703267882     -1.40118963549389      0.48838456624324
  H          -1.13985009704002      1.06766527882837      1.25100372550551
  H          -0.10276298138824      1.96215115508675     -1.16744443565849
  H           0.99483318943470     -0.06878584292090     -1.85999150669527
  H           2.29307675749298      0.56195772794574     -0.85013042972724
  H          -1.61264455365780     -0.28698813600612     -1.45127042079728
  H          -2.50592835791528      1.10051349234534     -0.80791590578853
