40
Coordinates from ORCA-job 16211192 E -661.090728147494
  O          -2.43316084145716     -0.99088575342440     -1.13897584031282
  C           1.19843702777076      0.08507534317887      0.53283863444795
  C           1.29553892752487     -1.42058541612576      0.63526835133224
  C           2.34991245467463     -0.63910494635090     -0.12307613456306
  C           0.03226577675229      0.67940887392358     -0.21363301184159
  C          -1.29199445080876      0.42622720105017      0.56146509091728
  C          -1.90538514955941     -0.91441554926266      0.20387997767700
  C           0.25018396443571     -2.30538030040745     -0.00964914868154
  C           0.08545991199138      2.22072911133967     -0.48071449485521
  C          -1.14468359097041     -2.16054393413892      0.62245304826362
  C          -2.13671238725203      1.67737609493305      0.30454427466265
  C          -1.09549543960894      2.79577124571562      0.31778890923596
  C          -3.34684601017781     -1.04079326088833     -0.03727427449693
  C           2.45337849588641     -0.72828050843516     -1.62914207855639
  C           3.70028196955099     -0.50196028158214      0.54732149209457
  C           1.41577732773528      2.90690981457658     -0.19569364240952
  H           1.45494340290719      0.62221563778432      1.44042691352704
  H           1.62339943978481     -1.79425952292759      1.60086598385359
  H          -0.06211154783942      0.18745264574147     -1.17971386954051
  H          -1.05573721053635      0.39402607755461      1.63140943766009
  H           0.16473889342013     -2.11697078022769     -1.08001131891646
  H           0.56741249114453     -3.34756101512420      0.08473025313564
  H          -0.13802236009805      2.36548556893286     -1.54186269717139
  H          -1.05729245382883     -2.17072243416559      1.71410886741554
  H          -1.75113443602630     -3.02485581149183      0.34347991707455
  H          -2.60467922434193      1.61328255945584     -0.68162698503753
  H          -2.92501967212389      1.81699368883366      1.04603374340125
  H          -0.78167864479042      2.99598487436000      1.34846039806910
  H          -1.46338113219198      3.73622265250923     -0.09661633439852
  H          -3.99591126915248     -0.17701677921618      0.06004299610256
  H          -3.83129234381715     -2.00124480127907      0.11657242206949
  H           1.48917298898697     -0.81505690600808     -2.12492681959584
  H           2.94762338503054      0.16247551133417     -2.02720058241523
  H           3.05300149371513     -1.59519878257148     -1.91975052453505
  H           3.60103545009824     -0.44015161854857      1.63261846569522
  H           4.34187130982739     -1.35753298884797      0.31731678381581
  H           4.21448230707072      0.40151347398581      0.20667322845631
  H           1.68268129106180      2.84593134267629      0.86126601282768
  H           2.22936275794863      2.45935884271048     -0.76956932054731
  H           1.36235809726290      3.96535983042767     -0.46095312386026
