24
Coordinates from ORCA-job 16270 E -314.417784199188
  C           0.20675129285680     -0.19019066626295      0.31887310642465
  C           1.28024869936412     -1.23172724895202     -0.02237649902711
  C           0.77370921552143      1.08307449751099     -0.32509271971647
  C           2.61969710425121     -0.48975740030268      0.13759981913107
  C           2.29102888220984      1.01584490035554     -0.06573370802461
  C          -1.19909472047381     -0.57526226085698     -0.12719709856004
  C          -2.28181952114454      0.43307076948863      0.25420321342336
  C          -3.68088619621075     -0.01215494211261     -0.16337922119056
  H           0.20027145115576     -0.04905047819098      1.40823212772942
  H           1.21354354519683     -2.12702405277648      0.59851034188029
  H           1.14391679515690     -1.54896970557728     -1.06162111321690
  H           0.56949581904610      1.05200009379557     -1.40095819860526
  H           0.32443282408697      1.99860225269756      0.06117099483938
  H           3.02808072178206     -0.65573826375319      1.13624574178565
  H           3.36844984688546     -0.84721250192420     -0.57024723401237
  H           2.86059717657410      1.45452744545414     -0.88586972199569
  H           2.54698268016841      1.58286839196256      0.83119400005158
  H          -1.19893978078628     -0.71181766967779     -1.21575598944938
  H          -1.45605806933284     -1.55092930141527      0.30098665748522
  H          -2.25626512306404      0.59394697468274      1.33744539721424
  H          -2.05729344726542      1.40123410595692     -0.20255933347612
  H          -3.94784390599784     -0.96196980424166      0.30703885297700
  H          -4.43691319410248      0.72340824417102      0.11869253650018
  H          -3.74098609587798     -0.15279038003160     -1.24568395216755
