52
Coordinates from ORCA-job 162868 E -1489.584528660022
  O           2.69541667605807      0.94487384348327      0.09798390067664
  O           0.60798229115997      0.09100285806428     -0.13294072638630
  O          -0.33322185833377      0.20615391633055      1.99199968821778
  O           1.68253180638252     -2.49159179071515     -0.49028791536433
  O           4.37457069428828     -2.46791392078622     -1.39892475058595
  O           6.07215164708664     -0.51189026648937     -0.10892253463538
  O           4.23880340973401      3.06595784032602      1.36312839426394
  O          -3.57310698391126     -2.44136313184824     -0.13564296307584
  O          -4.87919878150092      2.02698471324678     -2.02506016329334
  O          -3.20566559565081     -2.73936217074855      2.06088326653315
  O          -2.81480890341545      1.52601808591923     -2.64247679835547
  C           2.42561848275702     -1.30837996467024     -0.70823752878883
  C           3.90527260579122     -1.53911492033294     -0.43416843475715
  C           1.91134400991977     -0.22897890371683      0.23173665845899
  C           4.71057698934155     -0.24669659282335     -0.44771027924878
  C           4.05292342268596      0.78703289728646      0.47401582550182
  C          -1.38523995929827      1.33655257909193      0.10031097149136
  C          -2.22191573196484      0.06972680900807     -0.23427677642243
  C          -0.08542896030780      0.91570965043071      0.76570608709507
  C          -2.19315596376312     -0.87721565903673      0.94561983620829
  C           4.72013068793393      2.14977423636494      0.39305661855265
  C          -3.64730011079406      0.45947938759672     -0.64362492051295
  C          -2.11081636827683      2.31867450910805      0.97602675733069
  C          -1.30101318783803     -0.72751300787935      1.93650536532652
  C          -3.03017640396681     -2.08856564179238      1.05585054101946
  C          -3.69920098945121      1.37553386159435     -1.84810741591117
  C          -2.42859196179145      3.55042131964887      0.59958509481545
  C          -4.35103197845800     -3.64601718026642     -0.12866555544047
  H           2.09109392265780     -3.18876360970499     -1.01779269125913
  H           5.33537761804039     -2.51684887677266     -1.31903250696944
  H           6.10628134275219     -0.83710915326952      0.79997177855306
  H           4.56877401613469      2.80731990007800      2.23023131074975
  H          -5.47995921074572      1.83575745421172     -1.29354189341371
  H           2.29992559400496     -0.94445604711483     -1.73502334468243
  H           3.98754624019927     -1.97908058599638      0.57404100834180
  H           1.94755484697610     -0.58276575587501      1.27183553992287
  H           4.74001799316502      0.14938808915646     -1.46507449251556
  H           4.11011512770565      0.41893112823012      1.51468622635170
  H          -1.12340453916143      1.82280723689648     -0.83751232128909
  H          -1.75012951064048     -0.41095218569072     -1.09334180344056
  H           0.52372500746405      1.76695751295303      1.06434425863642
  H           4.48960564058591      2.58918092171356     -0.57848258294700
  H           5.80422540157123      2.01753758123215      0.46175453702469
  H          -4.20694642906488     -0.43844905426552     -0.90904008713420
  H          -4.16914000220688      0.92623847056501      0.19537678526408
  H          -2.38269812012247      1.97657502631013      1.97047442220519
  H          -1.28773203356162     -1.39072010467078      2.78999311301972
  H          -2.95004560849891      4.22843829698317      1.26350979288207
  H          -2.17742838117578      3.92386858781079     -0.38671399806959
  H          -3.73551877287260     -4.49402714946419      0.16915719994398
  H          -5.18880450585126     -3.55806104770668      0.56251622665382
  H          -4.70501162177159     -3.77088299200379     -1.14861872054187
