59
Coordinates from ORCA-job 162823 E -1643.447011593660
  O          -1.80064421365002     -2.79669804484009      0.10641073383750
  O          -0.18282633178940      0.42259654593166     -1.61317657628205
  O           0.91767239916319      0.27767691939379      0.41790548495554
  O          -4.15152304368278      0.87572992264478      1.97876573788226
  O           2.77520163427913     -1.03753619786884      0.34516783981902
  O          -3.15949645294103      3.35574646075658      0.55904083090148
  O           2.56088304361407      2.61702081994434      0.24209885196918
  O           5.27864539567106      2.15474190718827      1.02921863317106
  O           6.33623314951192     -0.31408183779290      0.11333554107599
  O          -2.40963154195897      3.89982169432337     -1.49220887275468
  O          -3.73018973925747     -3.89275920518772     -0.32740955519274
  O           3.67491962376019     -3.58101584186689     -0.34154696926423
  C          -1.29909908553765     -0.49736597787182      0.37560108782803
  C          -2.35058470001527     -1.47680299819283     -0.18597137764942
  C          -2.04105265720881      0.83326652447369      0.61707154602246
  C          -3.54618512243390      0.41321206296577      0.78535510516054
  C          -3.57086614190586     -1.11896199670721      0.66495507352352
  C          -0.02419952990269     -0.35260094212570     -0.42136811897377
  C          -1.79082229045178      1.80447141874198     -0.50700494798592
  C          -2.62758503171746     -1.36705531240710     -1.68021860523303
  C          -0.93895335878619      1.53465213294643     -1.50442288866784
  C           2.24302945644319      0.21863033687399     -0.02276670877758
  C           3.00948403850164      1.33929536372595      0.66506271315220
  C          -2.46522415223737      3.11810446601465     -0.56946598407396
  C           4.47975498731204      1.23230903732942      0.30141230513850
  C           5.01344674093297     -0.16122880812491      0.59740936802005
  C           4.13421405723710     -1.21228957610717     -0.07690111901193
  C          -2.56623432887032     -3.90200277587293     -0.02121811946137
  C           4.51664284060035     -2.63249113972531      0.29158544776104
  C          -1.75734454108966     -5.13787268412780      0.26875058609860
  C          -3.88372263998626      4.59104788730622      0.60868072550229
  H          -3.77762059652191      0.39107507179355      2.72359928635764
  H           1.62318555631758      2.69592690246549      0.45573276721803
  H           4.93456647622285      3.04046291561822      0.86180054639391
  H           6.84415530507437      0.44599414565577      0.42381328382385
  H           2.76745506463992     -3.35159777425282     -0.10808117715592
  H          -0.99742958175666     -0.91605859136308      1.33597514515026
  H          -1.72292884044906      1.28650986374289      1.55696060185648
  H          -4.13588738976239      0.86470499798514     -0.01100455178665
  H          -4.50451836426841     -1.49905970521469      0.26180647731653
  H          -3.43711761809409     -1.55613746881654      1.65977716563994
  H           0.35549782304605     -1.31356272168257     -0.76721909467205
  H          -3.42660031381967     -2.05249237287238     -1.95259432759461
  H          -2.93857217393908     -0.35505919610442     -1.93656213110234
  H          -1.73992129530146     -1.60425715527349     -2.26462952748668
  H          -0.80037865840343      2.21457328021082     -2.33342364102826
  H           2.29034184026962      0.34360138706707     -1.11305161241555
  H           2.88849022868771      1.21694860071970      1.74788497528338
  H           4.58222325945571      1.41954828663694     -0.77622927083747
  H           4.98068520395980     -0.31955883269974      1.68388023947746
  H           4.19723811478437     -1.09332653379764     -1.16654146532278
  H           4.48043198457547     -2.73807005174621      1.38360057420168
  H           5.53438630700550     -2.82888397776503     -0.04027343137487
  H          -1.23633333077018     -5.03804110186813      1.22117220800158
  H          -2.41303229512390     -6.00391478831836      0.28523462113742
  H          -1.00025761097663     -5.26735259197477     -0.50702567611874
  H          -4.40969714426467      4.57951688132350      1.55899662070407
  H          -3.19905912377169      5.43727828380596      0.55499416635718
  H          -4.58799229041965      4.65300408498317     -0.22028654051426
