27
Coordinates from ORCA-job 164619 E -726.434819761866
  O           2.38577955907325     -0.00016404550302     -0.53596539053519
  O           1.01745210886462     -2.44767520868077     -0.11431924337050
  O           0.96329126847450      2.43497159696932      0.27574275938138
  O          -1.24915124080419     -1.65940297400197      1.28833177563997
  O          -1.79924488045651      2.39381374862424     -0.15276109384621
  O          -3.19578900039649     -0.07783288492913      0.02775319818060
  C           1.10684368058085     -0.01734919071778      0.05725711937945
  C           0.37179962736870     -1.24818180300570     -0.49512948740475
  C           0.33369031821664      1.26454716069464     -0.25331206005538
  C          -1.10337314890152     -1.28699144986707     -0.09724885561820
  C          -1.12225943733875      1.21129615446617      0.21201412103911
  C          -1.85075567459569      0.01292501658495     -0.39505903148777
  C           3.45317456769709      0.42177347613187      0.29064648898379
  H           0.59777377957220     -2.74701286890199      0.70358563771193
  H           1.05781173708424      2.32972299749226      1.23093369414375
  H          -0.87323949854341     -0.96924620434206      1.84780526534960
  H          -1.18101374237497      3.12387005524545     -0.01280710521797
  H          -3.20510819014738     -0.56793467938449      0.86046741071612
  H           1.20854450489062     -0.12725487051731      1.15019949745404
  H           0.43590395395121     -1.19044065577545     -1.58561679776227
  H           0.34762631882356      1.41604729170268     -1.33528732592899
  H          -1.58844505137303     -2.10109697153433     -0.63570015473503
  H          -1.13118635515963      1.11133770750318      1.31468073271762
  H          -1.87989673554777      0.16330448148098     -1.47799454371111
  H           3.48542777898275     -0.16257510256715      1.21830116285433
  H           4.37043271046967      0.24096466421522     -0.26758865106588
  H           3.38650904158943      1.48681455861723      0.53098287718759
