29
Coordinates from ORCA-job 165368 E -857.517163159000
  O          -2.44495495872434     -2.09345681764782     -0.26479465710915
  O          -1.51127140111678      2.52720416924945     -0.20849118947186
  O           2.34826909946326     -2.02368647884327     -0.03542683205422
  O           4.26418382820181      0.11720301605701      0.03865701323454
  N          -0.21907170197570     -1.41318571987686     -0.11860571035349
  C           0.21359837563336      0.97689545126260     -0.09830409491525
  C           0.70430086706934     -0.37446748300468     -0.05880742678507
  C          -2.06640502386638      0.14061188316346     -0.23837553908783
  C          -1.15393552688603      1.23329627237942     -0.18363361633048
  C          -1.51661487323075     -1.13307392988566     -0.20356431480306
  C           2.03732176360992     -0.68413637125429      0.00975316513440
  C           1.19803666047464      2.00970941747283     -0.04140601039342
  C          -3.49113000107784     -0.09975099254007     -0.33152648831189
  C           3.04650071322333      0.35172990390870      0.02863392679398
  C           2.51780256092153      1.71510555275698      0.02721595817507
  C          -3.66559265684489     -1.43443130508261     -0.34396946023764
  C          -2.87709584204360      2.91406549285524     -0.29093024515691
  C           3.23756495272255     -2.49523091636434      0.98766698876983
  H           0.14399166405849     -2.35664397813118     -0.11762663646475
  H           0.86278292668830      3.03673616354145     -0.05929730106394
  H          -4.28737713526663      0.61858598585110     -0.38304498621790
  H           3.26200858121600      2.50099824670042      0.05901435242714
  H          -4.52838140025001     -2.07124496759381     -0.40137687905022
  H          -2.87156764634304      4.00083095782422     -0.28949016285066
  H          -3.33209796740230      2.55643217737599     -1.21613211574728
  H          -3.44073148553226      2.55453253855983      0.57164989079797
  H           2.80125245169662     -2.32301631585881      1.97696712252738
  H           3.34822569939789     -3.56490608577460      0.81813513461396
  H           4.19810068640153     -1.99046396030573      0.91425323371178
