29
Coordinates from ORCA-job 165521 E -878.422574504969
  O          -0.22320800866767      0.82562437482689     -0.02582712767060
  O          -4.50319727977674     -1.33139893961557     -0.02022549576846
  O          -2.18190770133793     -2.73807281308371     -0.03166265960573
  O           6.04318820308028      0.38418700216888      0.02869599915229
  C          -2.33827873865927     -0.34837668257051     -0.02254129351685
  C          -1.58799094583456      0.83503459599184     -0.01829385530312
  C           0.46467100919021     -0.34570337806102     -0.02178086485538
  C           1.91519953915354     -0.13916100757877     -0.01661518843124
  C          -1.62758808172964     -1.64875787852220     -0.02563825002866
  C          -0.17800774122575     -1.53029529785890     -0.01263340671419
  C          -3.74557966937677     -0.21306049549592     -0.01807762745111
  C          -2.16537729859148      2.10021881563896     -0.01221227514595
  C           2.79747544746050     -1.18956577352987     -0.30053667520678
  C           2.45754104819035      1.11450198627329      0.27814363632957
  C          -4.33116872101575      1.04814220542772     -0.01149904306446
  C          -3.54313539964242      2.19292302295600     -0.00877242463980
  C           4.16508516725728     -1.00235665302654     -0.28137562917544
  C           3.82870048598348      1.31147645434016      0.30159123709738
  C           4.68922272173781      0.25326476784389      0.02341253369588
  H          -5.43436936936863     -1.07863676372817     -0.01531867737035
  H           6.28393800557389      1.29183293757039      0.24760373982531
  H           0.37709282672839     -2.45478189389854      0.01758908398806
  H          -1.52921442034676      2.97342801727494     -0.01272298235042
  H           2.40992045194480     -2.16549034683563     -0.55672448410259
  H           1.79862405648019      1.94130638778184      0.49794949767963
  H          -5.41210943455143      1.13060422380724     -0.00907842875902
  H          -4.01680309079228      3.16588809832299     -0.00448858340691
  H           4.84296666696680     -1.81408958319528     -0.50724634072124
  H           4.23119527116954      2.29027861677558      0.53768258552018
