16
Coordinates from ORCA-job 16592 E -954.743684630911
  S           0.59328584150573     -0.96961111681213      0.58874655572917
  S           2.29355692374471     -0.55406232737207     -0.47960817458260
  C          -2.04113371997928     -0.20569389130390      0.41389462264903
  C          -0.68682155724742      0.05064022890078     -0.23830758343228
  C          -3.15057569070816      0.61989782238521     -0.23593100341245
  C           2.93884014940011      0.94468243096274      0.33202165069948
  H          -2.28095552967130     -1.27017201761850      0.34232541076822
  H          -1.98152942386082      0.02942005458636      1.48031914155432
  H          -0.40915143178893      1.10188899827524     -0.14979573246108
  H          -0.70209881037204     -0.21608830009172     -1.29523781320508
  H          -4.11304578970581      0.42481564175739      0.24023296729424
  H          -2.94682910558566      1.68988734390124     -0.15164218395753
  H          -3.24818136380938      0.38187059773939     -1.29754287792702
  H           3.12321792170688      0.75466317754338      1.38728080294839
  H           3.88044552999830      1.18033741100968     -0.16698986191119
  H           2.25181105637309      1.78045094613689      0.21265607924638
