31
Coordinates from ORCA-job 16666 E -468.259397976412
  O           0.46249103725067      2.36109850273788      0.28371880931409
  C           0.69333352006330     -0.09307155184518      0.33583203677689
  C          -0.08870394178761      1.12494788384465     -0.17665203016900
  C           0.04643746676505     -1.37810191557998     -0.19917335510952
  C          -2.22287685433097     -0.26049758310630     -0.33252531317473
  C          -1.57008662108842      1.02704251299487      0.17663904898529
  C          -1.43410483765118     -1.47341835430604      0.16527533727610
  C           2.21018239152448      0.01126205876806      0.06618332166851
  C          -3.69535289287911     -0.33567172084380      0.06123102443099
  C           2.99693797092435     -1.03391927425154      0.86023468881265
  C           2.57827096785259     -0.05254394042386     -1.41828676120952
  H           0.33311256817079      2.41026608197056      1.23841864965624
  H           0.57083170156072     -0.09851253921291      1.42969895536591
  H           0.00877872765329      1.17845822661851     -1.26445171821629
  H           0.14567361465157     -1.40828558592209     -1.28872406227093
  H           0.57876508113878     -2.25090436233425      0.18359604308637
  H          -2.16295661022315     -0.25292371676471     -1.42866026406177
  H          -1.67100566291915      1.06671239752642      1.27025000970376
  H          -2.08706658337943      1.90412575783459     -0.22054763141551
  H          -1.86418879436104     -2.39091360986015     -0.24642235790578
  H          -1.53915078901305     -1.54148871637254      1.25493563037585
  H           2.51027200485238      0.99676823660991      0.43106474688456
  H          -3.80456818275847     -0.34641268124859      1.14937551630212
  H          -4.25297463139614      0.52219538615911     -0.32101549091649
  H          -4.16319402510917     -1.24228755431422     -0.32907054430309
  H           2.75012733723442     -0.99334003952500      1.92409063735942
  H           2.79372393288810     -2.04816222650905      0.50864609567695
  H           4.07127959298033     -0.86504476733229      0.76037086084229
  H           3.64884003035091      0.11906223091752     -1.54794682668857
  H           2.35086804346198     -1.03030287800227     -1.84901884013356
  H           2.05391843757317      0.70521374177267     -2.00215421694323
