87
Coordinates from ORCA-job 166775 E -2519.318082309816
  O          -0.98146563100465      1.16666950312440      0.58934323918121
  O          -1.28366885567426      2.14322489537079     -1.52209290565962
  O           1.73154535213143      1.88777846400045     -0.08230607209293
  O           2.37604180082269     -0.26109103546006      0.63912046543320
  O          -2.56497007467606     -0.90954693791063     -0.18773789332475
  O          -4.41499239369872     -1.87620991265201     -1.23262176475934
  O           1.83436126782859      0.50005285028073      3.22787341616340
  O           4.42173497270407     -0.52926838654010     -0.35843873132559
  O          -3.49104328324806      1.77010664324519      1.28696552966397
  O           2.92161799893650      3.38230410906972      2.88566940648498
  O          -3.53435453576537      4.54796506575776     -0.35459576152334
  O          -2.51262855748950     -2.92485610316089      1.61162250965971
  O          -5.58062486229306     -2.85101718698261      1.99320514924155
  O           1.23435027884187     -1.72689259868818     -1.59332367571523
  O           2.49567316356440     -4.17861456374812     -0.79884027173939
  O           3.65299151697885      3.42068682246041     -1.58145190114443
  O           0.78234495940005      3.98353948302299     -1.89355589232266
  O           4.64866903709525     -3.91627674183065      1.11725878698040
  O          -1.05259915269900     -3.26849552699029     -0.93222330058449
  O          -6.56352201714871     -0.06514338488801     -1.61224343831936
  O           6.94701910605067     -1.83972623367894     -0.52355885387601
  C          -1.84642295429562      1.33289335615595     -0.52344432120506
  C           1.44519735845480      0.81159052075082      0.76630137581488
  C          -3.03640714304344      2.14852810576471      0.00727405485330
  C           1.61882734337811      1.40898683989511      2.16938731190335
  C           2.83698086336746      2.29921734675755      1.97704702994297
  C          -2.52465780966560      3.59012419683512     -0.08828611380186
  C           0.08204615807409      0.22861406808451      0.44063225928692
  C           2.62945481387866      2.82860082126679      0.55986329231003
  C          -1.53244160553513      3.54468650561358     -1.25118904006147
  C          -2.21440053820096      0.01607486784658     -1.20262988197939
  C          -3.17218647985662     -2.10854711280869     -0.59957419257047
  C          -3.57665147095350     -2.84096104653166      0.68183453609376
  C           3.03720955294367     -0.49826951640169     -0.59494540771514
  C          -4.79499343332455     -2.04962224562338      1.12186981035253
  C          -5.45948334163000     -1.73018745263800     -0.22755714026783
  C           2.58921400826383     -1.82735777380363     -1.21403055735532
  C           2.88386210817428     -2.93839208588007     -0.22547935028709
  C           3.89681426931327      3.01056770133127     -0.24954701592425
  C          -0.22205505929462      4.24733136883721     -0.93216913729702
  C           4.36840488760801     -2.92781522533437      0.12252387232902
  C           4.83755343700672     -1.53616730725675      0.56695747792994
  C          -2.29975794979645     -2.94833277862776     -1.52880782531823
  C          -6.04726667783096     -0.33777007809035     -0.32112563436495
  C           6.34259508736422     -1.44341875990046      0.69918366623277
  H           1.01296594226349      0.03462754016283      3.41829006173342
  H          -2.71731606201305      1.41182608568177      1.74580904550096
  H           3.09736367937067      3.02142360570936      3.76209308414232
  H          -4.11470179453518      4.59621140521444      0.41392960818248
  H          -2.82307908313817     -3.43573321089643      2.36875717171030
  H          -6.18549181729739     -2.28813032202825      2.48679497804797
  H           0.74374135679101     -2.54503162567902     -1.41686782300517
  H           2.87776660998355     -4.87722607057199     -0.25289991622169
  H           2.85876235780047      3.97546217836174     -1.61665063454151
  H           0.90656183075327      3.02251472538737     -1.89843843064992
  H           4.21309218517084     -3.65128595586989      1.93762853748096
  H          -1.17851485800503     -3.38866990707630      0.01986046679441
  H          -5.87555203987682     -0.29114680008006     -2.25036955607143
  H           7.89890722513737     -1.72335508915160     -0.45253636981536
  H          -3.87322092052912      2.04715361698705     -0.68729144232540
  H           0.75054540217266      2.04779750630425      2.36619514990107
  H           3.73533928426432      1.67531994292851      2.03140509039224
  H          -2.00658742224296      3.83430852857779      0.84653795765616
  H          -0.10126577886215     -0.61847555787790      1.10452912684915
  H           0.14460083195801     -0.16272690914840     -0.56751247292378
  H           2.10206817950066      3.78442593950100      0.62498189606340
  H          -1.98348246871071      3.96609128881054     -2.15047667777183
  H          -1.37239462753819     -0.34213479912758     -1.79811406574495
  H          -3.05407972021229      0.20186828315865     -1.87449042665165
  H          -3.91512411391993     -3.84442404844274      0.39807801109276
  H           2.86122225824082      0.32323833158777     -1.28511165158055
  H          -4.46740350020309     -1.13343196934234      1.62039482773675
  H          -6.22249004071934     -2.47938324661080     -0.45030178738354
  H           3.20688948772186     -1.98600326354547     -2.10593272643719
  H           2.30410289977658     -2.75361613420266      0.69042218893338
  H           4.44579602285774      2.06810276825926     -0.30039157028018
  H           4.52056668036052      3.74040538941551      0.28618296529214
  H           0.10595251476575      3.93713482720996      0.06495529011142
  H          -0.38911241471920      5.32586462189490     -0.92210866683400
  H           4.93908237690217     -3.23312869585879     -0.75388758288531
  H           4.40150570268409     -1.31652430398607      1.55135101410049
  H          -2.09335436745765     -2.41083105080830     -2.45414527574063
  H          -2.85962330588134     -3.85298804006886     -1.78577144700721
  H          -5.28915130175115      0.39428061606272     -0.02476927944748
  H          -6.88582560822196     -0.25092691336134      0.37496899173293
  H           6.65445336746611     -2.09559543916171      1.52265281220877
  H           6.59932553483621     -0.40834638836328      0.95069941833261
