45
Coordinates from ORCA-job 16681753 E -1336.482863936382
  O          -0.16088260972686     -0.35653188362250     -0.15440863437416
  O          -5.63310543537322      0.10031314053348      0.01848487661598
  O          -4.36113160719883     -2.43170110899978     -0.32751620672920
  O          -4.15250172902604      2.28742774659194      0.29634741025454
  O           4.22730823135251     -2.69241579101313      0.05611135087661
  O           5.46929588770983      1.74807181932839     -0.47784482124119
  O          -1.63041232587644      3.39827354858488      0.39647230806441
  O           6.07812609993828     -0.81094064202579     -0.25557219357298
  C          -2.09654729332323      1.07183204027818      0.09517435931393
  C          -1.51421372192067     -0.18885197130459     -0.09146071422506
  C           0.67744746130068      0.70340423405264     -0.01302931083284
  C           2.08789050116787      0.31482681481659     -0.09070620729125
  C          -3.50490079098117      1.12104715899419      0.12924633836627
  C          -1.22244631825667      2.25588421914063      0.23854210644118
  C           0.19721784117573      1.94846757928290      0.18460036065972
  C          -2.25426776848072     -1.35614865879731     -0.21780948640188
  C          -4.26072531541579     -0.04330292806666     -0.01982959043258
  C          -3.63548270419436     -1.28341694020742     -0.17048354157741
  C           3.07869175969677      1.28641521491259     -0.25911035777717
  C           2.44911050963586     -1.03058883834057      0.01219054554457
  C           3.78491990945893     -1.41396075146918     -0.04012059536632
  C           4.40709020006743      0.90229918719986     -0.31048876447276
  C           4.77684190886993     -0.44231230142621     -0.20067140293113
  C          -6.28697842893934     -0.11527646594828     -1.24288192664005
  C          -5.13805578607339     -2.82860245615109      0.80942043004538
  C           3.26482785317427     -3.72052679062003      0.21423084033064
  C           5.20959002480759      3.13954566775851     -0.58769746306358
  H          -5.09761770227839      2.06919950930036      0.33992887238091
  H           6.60119225939710     -0.00469008933093     -0.37020585437007
  H           0.87124592615656      2.77864416035518      0.32591652847996
  H          -1.76299223033351     -2.30888554217958     -0.34823186853059
  H           2.80844073239259      2.32376911589599     -0.36881310743640
  H           1.67741676750852     -1.77032434756025      0.14066722894321
  H          -7.34460084789380      0.07787615423368     -1.07565361103627
  H          -5.89818032884306      0.57491396938381     -1.99566861428139
  H          -6.14253907568697     -1.14242551991552     -1.57904282857309
  H          -5.87469353818872     -2.06890386344916      1.07311350350006
  H          -5.63943836211916     -3.75078536635587      0.52419407027461
  H          -4.48329259735010     -3.01709282533938      1.66436322366494
  H           2.69234447995692     -3.59251331836806      1.13780020816342
  H           2.57653123462350     -3.75646453538637     -0.63547837892524
  H           3.82766538702582     -4.64943429771466      0.26347747331723
  H           4.71665823298332      3.51862274204898      0.31139780406733
  H           6.17839546927783      3.61932238043876     -0.70141635778441
  H           4.59011083980257      3.35553783046078     -1.46211300143789
