27
Coordinates from ORCA-job 16732 E -503.743162788482
  C           0.56664162807634     -0.41151833774477     -0.01353276077579
  C           0.34888523069701      0.99554107675770     -0.02046148366258
  C          -1.85274927077975     -0.76791661612603      0.03310724156534
  C          -2.06632896904503      0.64127008349329      0.02602509321640
  C           1.90058028749837     -0.91514816896750     -0.03384193060299
  C          -0.56832752815563     -1.25507942682003      0.01358661069514
  C          -0.97898828640560      1.47765690181771     -0.00015551872327
  C           1.45873872691020      1.87144974812983     -0.04734478219461
  C           2.94601213746322     -0.02259542447146     -0.05968397114898
  C          -3.02387438043766     -1.71006987975917      0.06173366476688
  C          -3.46199388304122      1.19893906909774      0.04693003809424
  C           2.73179663953728      1.37049795047767     -0.06655035252084
  C           2.16265892501627     -2.39536609416124     -0.02723095448843
  H          -0.42389680467511     -2.32741526043357      0.01928253951309
  H          -1.13310568730835      2.55120696650754     -0.00569628048564
  H           1.28349634823901      2.94053869687103     -0.05242634106986
  H           3.96187402962060     -0.39927218496911     -0.07518511736419
  H          -3.64327414128576     -1.55349379843082      0.94915211463954
  H          -3.67526740674724     -1.56712196321558     -0.80482986541151
  H          -2.68959652037331     -2.74707958649482      0.06369269279896
  H          -4.00961894221004      0.87685467938226      0.93685832301449
  H          -3.44585540858644      2.28833032358491      0.03797543804323
  H          -4.04146958348446      0.86291517889962     -0.81729843199275
  H           3.58241191489019      2.03999650032943     -0.08711294414599
  H           1.74560738319038     -2.87347442652515      0.86307698886273
  H           1.71448119662741     -2.88679887515399     -0.89488278123895
  H           3.23345036476931     -2.59588113207549     -0.04468422938368
