40
Coordinates from ORCA-job 167493 E -1350.069434095660
  O          -0.18742205790128      3.20700604132977      0.00644952648236
  O           2.02509589251855      3.81479440772349     -0.11894334302727
  O          -3.11781125042750     -2.82589105108283      0.05575080187277
  O          -4.53814219700999      1.75094050521417      0.02708511011981
  O           4.86332171410487     -0.61052641218829      0.21602865653925
  O           3.54087553345296     -1.61981034042672     -1.25244861614562
  O           1.61325459945447     -3.77100747787553      0.41088167216161
  O           2.69367993302911     -2.26276275784066      1.52269118687767
  N           1.80236431493614     -2.62108115285637      0.76077475977926
  C           0.18625123907612      0.74731903674678      0.11855714159187
  C           1.24623770897029     -0.22139114009229      0.13648207931734
  C          -1.20772017005926      0.33354943954951      0.11107836716096
  C           0.59509835676136      2.08129134418932      0.06175500650250
  C          -1.49071375348444     -1.05864902753939      0.10830473695097
  C           0.85018196461572     -1.59322253573808      0.31420719984661
  C           2.58943341626896      0.18418155809168     -0.03598798142376
  C           1.91727138914443      2.45452583599717     -0.01649554672725
  C          -0.43994531266318     -1.99528860507272      0.26241926524005
  C           2.93484969018623      1.53132242725689     -0.09389280579337
  C          -2.27312729307568      1.23749446999008      0.08617017196038
  C          -2.83186566333845     -1.48599943746060      0.04327150004350
  C          -3.58519279403449      0.78752478135985      0.04310055170471
  C           0.71180762133842      4.31462126392131      0.12731083941978
  C          -3.87207011890053     -0.58360695973458      0.01112230285142
  C           3.67000103569692     -0.79032247436798     -0.39615238818385
  C          -3.05320750064814     -3.46580309653760     -1.22263938747321
  C          -5.90334703140713      1.36154948098791     -0.01188241942387
  H           4.74750694858111     -0.06319905273988      1.00398228442839
  H          -0.67641843974356     -3.03657429271400      0.41595096391414
  H           3.95544307027575      1.84432777622602     -0.26367315114382
  H          -2.10835606878351      2.30037267165564      0.09618062727470
  H           0.45942744950955      5.06803779558119     -0.61684061055041
  H           0.65448978290236      4.71561741738484      1.14547719474783
  H          -4.88171860547946     -0.96233301924819     -0.02725249488247
  H          -3.27310078227506     -4.51699325558979     -1.05119469954534
  H          -3.79535690922968     -3.03903638196340     -1.90333258930641
  H          -2.05836022486979     -3.36652649519262     -1.66419278581270
  H          -6.17210398208406      0.76640329590385      0.86506321362977
  H          -6.47590705029271      2.28550179244077     -0.01073606670717
  H          -6.12951845511540      0.79583862471126     -0.91996127427111
