39
Coordinates from ORCA-job 17095 E -510.915031124670
  C          -1.23591997227727     -0.40875597710150      0.08696766158706
  C           0.02267878937426      0.45246851319729      0.01884566798829
  C          -2.52953305025635      0.39204652360929     -0.03829526758334
  C           1.31630741091117     -0.34867442819791      0.14256417137429
  C          -3.78830869494904     -0.46901162942913      0.02970544953711
  C           2.57444882746314      0.51318840352184      0.07462163443257
  C          -5.08193815607234      0.33146495722988     -0.09644116164270
  C           3.86672415063706     -0.28992278969662      0.19529750802316
  C          -6.34176289278533     -0.52905812648143     -0.02934851427240
  C           5.12638638113905      0.58167118511698      0.12173391034627
  C          -7.62897519701570      0.28144567939110     -0.15686396488937
  C           6.38889928346924     -0.20628938467909      0.28459153251637
  C           7.35220970667399     -0.30876732708893     -0.62249285411043
  H          -1.20021243485105     -1.16431953949861     -0.70622190763510
  H          -1.24390942989823     -0.96313742251213      1.03244084723294
  H           0.03027223689448      1.00741782758268     -0.92628361841581
  H          -0.01246530932971      1.20751133316706      0.81256662399328
  H          -2.56519299570018      1.14775019999582      0.75478949189825
  H          -2.52137887099518      0.94633745601178     -0.98381818321663
  H           1.30894768535891     -0.90391334990141      1.08749620465711
  H           1.35175386301417     -1.10326501091628     -0.65139626379603
  H          -3.75226246296615     -1.22499582573937     -0.76311960204122
  H          -3.79663966549609     -1.02294250970899      0.97546801859106
  H           2.58121405939945      1.06944982662471     -0.86967172160910
  H           2.54087387475481      1.26679064803933      0.86977611256558
  H          -5.11896631608179      1.08741501458684      0.69660327865916
  H          -5.07400315408515      0.88593709301780     -1.04207772397007
  H           3.86465737113306     -0.84295889419154      1.14112120663869
  H           3.90818745568360     -1.04293626344512     -0.59814571639774
  H          -6.30391380369323     -1.28379747235702     -0.82208711509659
  H          -6.34913968293781     -1.08230602487674      0.91583049123738
  H           5.14788840659780      1.11902276638353     -0.83099300689376
  H           5.06997185953506      1.34183932386436      0.91053279053002
  H          -7.70744129185793      1.02231956724630      0.64292562511611
  H          -7.66181681878433      0.81924723652114     -1.10786160673162
  H          -8.51242322813223     -0.35814527335262     -0.10572263240859
  H           6.49340452757263     -0.74238127591254      1.22577137322030
  H           8.23867028029849     -0.90540464889488     -0.44763238307645
  H           7.28866625825473      0.20543561887412     -1.57558835635805
