71
Coordinates from ORCA-job 171292 E -2099.877360199761
  O           7.02689504881664      0.01695397361930      0.87954995967317
  O          -6.91365129620227      0.01909670037931      0.92759639887847
  O           5.68503964986241      1.14795654231119     -0.58025755489137
  O          10.52278134235095     -0.98791300872755      0.79646911662745
  O          10.43765569176223      1.10980852284435     -1.11987264563936
  O         -10.07295617742833      1.78480974159936      1.31609182994371
  O         -10.70626267321687     -0.18222482500991     -0.63357234777241
  O          -6.05473298788450     -1.31432469753514     -0.71315188629261
  O           7.89293579334518      1.41588942365605     -2.38791372742402
  O          -8.47107185264142     -1.00634899383763     -2.22149728397095
  O           6.96485288665906     -1.89921567358525      2.90816335260611
  O          -6.16920340689387      1.77477898652552      2.96335505489662
  O           1.07646318454175      1.74431403397372     -1.01789658066868
  O           0.21754636037725     -2.08010035229198      0.12502229087333
  C           9.42531887274572     -0.10580909071871      0.64637504669016
  C           9.28239111804139      0.34958590802047     -0.79864901014317
  C          -9.23119793221019      0.68662563610358      1.00933811079332
  C          -9.37481040976431      0.27916756758058     -0.44982474082395
  C           8.16003958227230     -0.83844108169670      1.08407198811409
  C           8.00505070336020      1.14856747751150     -0.99894357623883
  C          -7.78737418778066      1.09389831393023      1.29279547252785
  C          -8.35017509224383     -0.77697146137295     -0.82516281860764
  C           6.82458757913080      0.33986878055965     -0.47478094859806
  C          -6.96042788342191     -0.28209057848812     -0.44972898542547
  C           8.15224875924611     -1.21319338908956      2.55282012928204
  C          -7.51449183931264      1.38270041030433      2.75539660348255
  C           4.44721738586726      0.57741950758505     -0.47038844067337
  C          -4.71417455199368     -0.95834490163275     -0.69346041821413
  C           3.38142211405618      1.40371216730248     -0.78475130985481
  C           4.23091307605665     -0.74834242566813     -0.06399050587158
  C          -4.16838413441795     -0.21593538421270     -1.73047756227546
  C          -3.91659679044715     -1.40661063744164      0.34870575262488
  C           2.09423440572940      0.89346274004244     -0.70068965647886
  C           1.84225367822491     -0.42228912272411     -0.31114604635295
  C          -1.99559968691601     -0.33277049205781     -0.65845201256614
  C           2.94041715017289     -1.22807992851691      0.00518261693180
  C          -0.56729490164045      0.03563329276906     -0.62786537605519
  C          -2.81552692598749      0.09078854573905     -1.70786512595926
  C          -2.56429444553392     -1.10195731617961      0.36159358606379
  C           0.46686116782081     -0.93769915950092     -0.23272343683587
  C          -0.19063208479874      1.28624896379862     -0.96477197446362
  H          11.28814840759160     -0.56851350581648      0.38378013545763
  H          10.34860857546696      1.41387637991053     -2.03123633473693
  H         -10.95639202375629      1.56704251832559      0.99359011346322
  H         -10.79310178628154     -0.47436393948639     -1.54900321996622
  H           7.13015187804784      1.98861759044043     -2.52791279561934
  H          -7.85784863446231     -1.71117666205709     -2.46125448361221
  H           6.22346606435327     -1.30919386353616      2.72664649669847
  H          -5.60984916540352      1.09485598346243      2.56732620257727
  H           9.55454053560221      0.78319381267522      1.27823563692328
  H           9.23348241904594     -0.54342113183399     -1.43685659416268
  H          -9.48342320923802     -0.17878439277266      1.63670169432114
  H          -9.19954924606053      1.16692087293021     -1.07310686073161
  H           8.04235578519585     -1.75002609374941      0.48316264538805
  H           8.05906025819763      2.07790723854507     -0.42088462224905
  H          -7.53957717443150      1.98508249047389      0.70080990369219
  H          -8.54377487232111     -1.69468582036431     -0.25832666869134
  H           6.69397620230803     -0.57364707023465     -1.07280372771105
  H          -6.70071098263684      0.61378760682663     -1.03276142654423
  H           8.28256373209866     -0.30465370037304      3.15415383350496
  H           8.98574717642825     -1.88321453189173      2.75527852181583
  H          -7.76451856739277      0.49118748153316      3.34536186800276
  H          -8.14758765238178      2.20425412122952      3.08591031610691
  H           3.54779815639672      2.42653545903557     -1.09080998146423
  H           5.05765645131836     -1.38064126120313      0.21916020544820
  H          -4.79291715433743      0.09719940290853     -2.55701847689471
  H          -4.36601382704051     -1.99115149542950      1.13959507141267
  H           2.74326613015634     -2.24455825221878      0.31761286480365
  H          -2.38469658316154      0.64054435340691     -2.53499669591610
  H          -1.94158334233241     -1.46209778025302      1.16605016236969
  H          -0.89098684067348      2.06779847364889     -1.22248012159787
