20
Coordinates from ORCA-job 17130 E -536.280055524518
  O           0.54634697617652      1.35086128481639      0.07089639558161
  O           2.76026908437140      1.45781119421434      0.09835331165318
  C          -0.60926446210954     -0.75165316901391     -0.02145604780732
  C          -0.61745713327158      0.64660363687661      0.03194800208300
  C           1.82284700358648     -0.71845901699845      0.00505327459235
  C           0.66561906753625     -1.40944914945871     -0.03341089973720
  C          -1.83792943552353     -1.42426947819458     -0.05985266668088
  C          -1.80653788836263      1.36460793474233      0.04712864723430
  C           1.79120885779570      0.74645976371006      0.06085639978075
  C           3.17871298429743     -1.34776796429533     -0.00492113386675
  C          -3.02665718201655     -0.72009638015204     -0.04516092341271
  C          -3.00749981531596      0.67574291215076      0.00840986396062
  H           0.68430570875400     -2.49329858898930     -0.07472128314981
  H          -1.84019510658890     -2.50662054179622     -0.10127014719013
  H          -1.76904410902897      2.44447642467610      0.08880531462457
  H           3.74237291849135     -1.06393086502635      0.88621986198891
  H           3.10219372348446     -2.43388930050569     -0.04682673746200
  H           3.76020329924967     -0.99788210076586     -0.86042733888510
  H          -3.97062214818832     -1.24737266827504     -0.07503825190713
  H          -3.93818534333730      1.22772607228489      0.01992635859975
