31
Coordinates from ORCA-job 1715097 E -468.255334264547
  O          -0.15213905075544      1.59185524126235     -0.95642486198811
  C           0.70591502291088     -0.23017246052863      0.33869140448046
  C          -0.09744112638596      1.07599065193466      0.38149554625117
  C          -0.11851269235760     -1.33434278187923     -0.33757616263558
  C          -2.31890953691781     -0.25724432027713      0.37525913576071
  C          -1.48850923534731      0.87976380739193      0.98865455101979
  C          -1.47492929946848     -1.53811698566375      0.33885383129729
  C           2.10240769423566     -0.05443917482772     -0.29692357827451
  C          -2.90591379426749      0.08766617686198     -0.99661215699560
  C           2.86550697655568      1.13978507355351      0.28263973393875
  C           2.95034521376102     -1.32164587796448     -0.14955171542577
  H          -0.72922245968893      2.36245800897823     -0.96193413121025
  H           0.85845303177191     -0.51877994464424      1.38833118759291
  H           0.43757466640916      1.79434908319105      1.01294899598635
  H          -0.25488250635201     -1.07769208786341     -1.39118963427375
  H           0.43042588526053     -2.27596065431147     -0.31508697769044
  H          -3.16415626986192     -0.43389966968540      1.04914744742350
  H          -1.34672057824797      0.67646935172352      2.05564381261862
  H          -2.04030074766050      1.82561122227922      0.93272701761422
  H          -2.03043003030882     -2.33280842526296     -0.16701348940162
  H          -1.30676482344604     -1.88148039702663      1.36590538270218
  H           1.95045354552237      0.13541667179634     -1.36350192783037
  H          -3.50073171764473      1.00348155034751     -0.94505738055659
  H          -2.12899047777907      0.23928098859896     -1.74423807087525
  H          -3.56337511265060     -0.71399933736597     -1.34146406796050
  H           2.96524437186796      1.05408603215124      1.36928676093851
  H           3.87292146645849      1.18502072632934     -0.13618726062077
  H           2.37341696879511      2.08511843003632      0.05668189527176
  H           3.08857158626036     -1.57529569919568      0.90615814555315
  H           2.50431468456683     -2.18360054776326     -0.64501719381526
  H           3.94052534476470     -1.17139365217620     -0.58466323889500
