77
Coordinates from ORCA-job 173183 E -1170.896932085785
  O           8.03963311443471      0.04833325938114      1.24303885276728
  C          -0.44715763153438      0.31846083580466     -0.83497848820215
  C           0.28935075268991     -0.93157638493508     -0.30578369417050
  C           1.79711616771067     -0.92786324003005     -0.51508034950785
  C           2.41194839926714      0.32953590081837      0.12878833182092
  C          -1.91431758255192     -0.06973668136737     -0.49223763311902
  C           0.13430928557401      1.51887223218432     -0.08034854324320
  C           3.94713785685484      0.42521666025454     -0.11248958806581
  C          -0.52356219437127     -2.10948305023089     -0.84229669733471
  C           1.65554127779794      1.61158763634041     -0.25585653101740
  C          -1.97887738241066     -1.58472438530422     -0.83910141661839
  C           2.43587843625902     -2.17918894974646      0.08604356561427
  C          -3.06535466279367      0.72736511467513     -1.12656865035332
  C          -0.28111719692635      0.49792129792680     -2.35161204214973
  C           4.60854056253617     -0.92642670223382      0.13990529886668
  C           4.53748134531492      1.44936729495237      0.89028417889662
  C           3.91771638730351     -2.05964545239537      0.24387298942694
  C           4.26674683479864      0.86989453275899     -1.55502408342589
  C           6.11167645630256     -0.93310655870426      0.26474522268158
  C           6.06394064463331      1.46781848186333      0.94423984498575
  C          -4.44604319993234      0.13658088668429     -0.77099145463622
  C           6.61232740907701      0.08771888998477      1.27591981291456
  C          -3.02624270436373      2.22287127304196     -0.79692604191090
  C          -4.80477279631100      0.15165554948381      0.71418246701494
  C          -6.12538784520562     -0.55029876321876      1.06761964068430
  C          -7.34762746112720      0.01969263022284      0.30920552264681
  C          -6.30777971330539     -0.56244639851225      2.58804995070391
  C          -8.61454690976232     -0.80025380570937      0.56615831338483
  C          -7.60243370167813      1.50327079403722      0.58576899345586
  H           8.37807816275244      0.70010586272810      1.86674118237973
  H           0.13630243598954     -0.91452261579388      0.78301314137274
  H           2.01065986922770     -0.92313976488145     -1.58880347622797
  H           2.28582510886759      0.19679122630157      1.21204238877077
  H          -1.99974969005789      0.03417052243100      0.59473875775456
  H          -0.31246447444873      2.45732879374410     -0.40954875942740
  H          -0.10814402535641      1.41257366390168      0.98277428507396
  H          -0.20189913067740     -2.36786477056765     -1.85419804823853
  H          -0.40423418620716     -3.00697795367077     -0.23510815765975
  H           2.02436940664318      2.44734254048939      0.34179985588150
  H           1.86922832701456      1.86865214070973     -1.29403189383674
  H          -2.59961003590870     -2.12260707589742     -0.12193535234360
  H          -2.44400917556843     -1.72833982176776     -1.81645850347471
  H           1.98036668942484     -2.38533895165377      1.06473199502635
  H           2.20345070728855     -3.05253560793034     -0.53079052886881
  H          -2.97083833477169      0.62732751648966     -2.21340038068577
  H           0.76486568370284      0.56091159697760     -2.64642573601094
  H          -0.72562213404589     -0.32674617278241     -2.90922994560216
  H          -0.76742051834425      1.41666015254776     -2.68364516604327
  H           4.17139931549501      2.44809689362875      0.64713359624313
  H           4.15354647924935      1.20865717239594      1.88711031454002
  H           4.45932848952158     -2.97846117877765      0.45120183589625
  H           3.98362487083709      1.90948412034371     -1.72328939411765
  H           5.33044245779035      0.78450570970058     -1.77053298906309
  H           3.74001669651157      0.24838201507973     -2.27973301631530
  H           6.46093157027757     -1.92828360052063      0.54250244062687
  H           6.57985882796716     -0.69060414701764     -0.69554748097514
  H           6.48751174213795      1.78914390081966     -0.01115777764773
  H           6.39449420057916      2.19210521756409      1.69644335088651
  H          -5.19390316062885      0.70137987565625     -1.33376163739095
  H          -4.50824441557058     -0.89151541303330     -1.13805832523008
  H           6.25796217143435     -0.20535207181930      2.27495688006040
  H          -2.93560699984393      2.39695245404523      0.27704806830169
  H          -2.18953938525155      2.72305221965618     -1.28192740359006
  H          -3.94163536339079      2.71290566490797     -1.13743202862557
  H          -4.01205762415943     -0.34230196379416      1.28261727245134
  H          -4.83405461259648      1.18107777111205      1.08208342813353
  H          -6.02905249490270     -1.59401148554286      0.74123253245413
  H          -7.12328149272886     -0.07868814014673     -0.75710073164682
  H          -5.44513124282418     -1.02850424959222      3.06897908389406
  H          -6.39449521088214      0.45053026928591      2.98751254876127
  H          -7.19393912778829     -1.11983432135244      2.89268450094054
  H          -8.97809227420380     -0.67312901240296      1.58794134296241
  H          -9.41730504082252     -0.48903361073164     -0.10583437675536
  H          -8.43682683901189     -1.86620527119413      0.40387106770863
  H          -7.84813869869123      1.67787179607941      1.63561381114788
  H          -6.73776099414753      2.12068320811434      0.33785116058664
  H          -8.44466547816145      1.86192999813368     -0.00983650418769
