47
Coordinates from ORCA-job 173273 E -1002.138902374637
  O          -5.11302041600831      0.94638835933493      0.43970282666687
  O           3.34893545543542      2.13670987987233      0.23025112326768
  O          -5.82732837767241     -1.18290660137683      0.18697482694589
  C          -0.69138245285961     -0.52103530441523     -0.45443374279529
  C          -1.34829500066520      0.67859290027952      0.28256675502680
  C          -1.27388873990384     -1.81565720633577      0.15927768451244
  C          -0.82660194744951      2.01002319759429     -0.24424295322119
  C           0.82213951909822     -0.42079013170209     -0.28465309298493
  C          -2.83241253416289      0.52946856322445      0.29162245994223
  C          -2.79333407381838     -1.94770081633354     -0.03759672314430
  C           0.67039214929297      2.12316043843234      0.03590324265904
  C          -0.99229961176372     -0.49639161496817     -1.96858321999425
  C           1.43315413928558      0.82449769816956     -0.09645710507787
  C          -3.46534421716439     -0.63701760088845      0.16908541952111
  C          -3.84819746015009      1.61242179701032      0.47209268044288
  C           1.63028856696438     -1.55177529604248     -0.39210165317749
  C           2.82781881309104      0.88640396599099      0.00890319437325
  C          -4.91686962605695     -0.40513343749454      0.25383184518880
  C           3.64558092996521     -0.24247717660302     -0.09400066406418
  C           3.00878496420541     -1.46149118058688     -0.30108445609818
  C           5.14915175710950     -0.12373140722049      0.06937519583548
  C           5.93439394248448     -1.24565291337458     -0.61123165349688
  C           5.52852847274081     -0.02619839827858      1.55693153619403
  H           4.31064455650111      2.09439754729093      0.21154117238954
  H          -1.02291668309489      0.60980355503300      1.33102432390121
  H          -0.79180391299572     -2.69134957123435     -0.27255125701918
  H          -1.04198782463853     -1.82414226605514      1.22777430340032
  H          -1.03144641411054      2.09333981315282     -1.31317301527702
  H          -1.34599410205167      2.84290505835540      0.23534889187452
  H          -3.02721584862251     -2.31985316093655     -1.04005217142671
  H          -3.20162031059377     -2.69178629617336      0.65038548272216
  H           1.12500152172752      2.87543061142646     -0.61133926002005
  H           0.81944279693368      2.49965002582019      1.05392928561644
  H          -2.06027069654864     -0.41193412509922     -2.17230112678887
  H          -0.48442700755649      0.33074323970238     -2.46200407809165
  H          -0.62827961674761     -1.41722707542446     -2.42665213552398
  H          -3.82130833840679      2.35619704774728     -0.32933182702079
  H          -3.74831262649368      2.13628939326548      1.42778542257115
  H           1.18725157435292     -2.52295893808930     -0.55638564996371
  H           3.59770467340872     -2.36356031067976     -0.39270837450019
  H           5.47232597437088      0.80524234552933     -0.42278126368652
  H           7.00452975074943     -1.03930492562915     -0.55557110854119
  H           5.76268425032511     -2.20554125402857     -0.12080514112568
  H           5.65884703697930     -1.34627016449708     -1.66183441010424
  H           5.00013486448937      0.78604677305386      2.05888643812190
  H           5.26468924611007     -0.95413303492303      2.06816587186526
  H           6.60190388391495      0.13673299810481      1.67699310010535
