23
Coordinates from ORCA-job 17355 E -463.444573325412
  O           3.46231069262381     -0.00125001543745      1.07531259046265
  C           0.66854589546967      0.04302239258984      0.79840418223630
  C           1.59438186903238     -0.02891749061552     -0.41605838688952
  C          -0.78242298389263      0.02649576623747      0.39596367465221
  C           3.07156998722381     -0.02326845472588     -0.06909215739817
  C          -1.45899165439228      1.21248148446404      0.11161396920483
  C          -1.47206146425789     -1.17784098086037      0.25772619771936
  C          -2.78520703148385      1.19775217569086     -0.30254553408473
  C          -2.79830420732689     -1.19916072941717     -0.15606752102080
  C           4.03159975277816     -0.04438928825020     -1.23857387414222
  C          -3.45958407848362     -0.00989786853833     -0.43942442733751
  H           0.88812295350629     -0.79479310758232      1.46175459509110
  H           0.89472739724369      0.94838584650094      1.36404914800147
  H           1.38851679949801     -0.93120727449009     -1.00315557327429
  H           1.39893914864015      0.80357073950753     -1.10111717912187
  H          -0.94179549498568      2.15880828165425      0.22284042186367
  H          -0.96497214414347     -2.10899476513121      0.48389475148659
  H          -3.29398708298094      2.13007865590820     -0.51328487282871
  H          -3.31733420221456     -2.14461550618233     -0.25208674224091
  H           5.05651022912222     -0.09703682161475     -0.87817846950756
  H           3.82213657883028     -0.89611945109939     -1.89030731154717
  H           3.90200288041681      0.85745715061667     -1.84282704866400
  H          -4.49390397110146     -0.02370320043377     -0.75828605283972
