90
Coordinates from ORCA-job 174003 E -2447.982603233014
  O           0.86886640770532     -0.53601076241322      0.85937088320991
  O          -1.23355619161733     -1.14693426407511     -2.75879912552794
  O           6.78371796916853      0.53790478699260     -1.18807188860231
  O          -7.29943952311502     -0.80581816102294     -0.90911997646242
  O           7.92685700874324      0.89199678246365      0.73365233234389
  O          -7.57789716877663      0.17810674130778      1.13469900517920
  O           5.22546984090835      2.02751672891022      0.50729893718873
  O          -5.91941688399615     -2.33891082967512      0.84331580359879
  O           8.88790947846523     -1.15776890962736     -2.09021055206160
  O          -9.47531558580962      0.74748825679043     -1.93796626492777
  O          11.36941492656300     -0.63077743178420     -0.83018646988276
  O         -11.18711341422061      1.81959754810772      0.08668499763470
  O          11.19440736625379     -0.23087514785840      1.98132569356498
  O          -9.81198102922576      2.75897413521688      2.39137788036381
  O           7.37662458840709      1.63802481612124      3.23860510345927
  O          -6.21677914504227      0.67654649968454      3.43232312571207
  C           0.42304723500297     -0.10163227434278     -1.39880358361110
  C          -0.92493710074535     -0.14656605814241     -0.66198065951567
  C           1.34883014502919     -0.87494005823784     -0.43783606935505
  C          -1.67079650107112     -1.26956843961995     -1.41222226341328
  C          -0.55581478353584     -0.43252404542637      0.80032454651854
  C           0.14511225517352     -0.76391770307306     -2.75487159708974
  C           2.80619640400815     -0.53821599724383     -0.57277276060060
  C          -3.16825869564931     -1.17781070500676     -1.32704980957943
  C           3.32363394418594      0.58749880779756      0.06522653170025
  C          -3.83179748133701     -1.85035674531945     -0.30183975101866
  C           3.62840495973383     -1.30598797164923     -1.38524646298808
  C          -3.88981094000052     -0.38609528109036     -2.20966318821060
  C           4.65559846765499      0.95519473002689     -0.10015279754458
  C          -5.20869505847727     -1.72343549863752     -0.13096660639030
  C           4.95577208246555     -0.93654044899221     -1.57149481113328
  C          -5.26564514203586     -0.26632687768797     -2.05520342718961
  C           5.47327544837880      0.17936450139474     -0.94033670160166
  C          -5.92357181201057     -0.91377157432959     -1.02573530349305
  C           7.74311176718139     -0.00938260377876     -0.34047736973285
  C          -7.75805924609153      0.34081043638042     -0.25314530562550
  C           9.05865328143926     -0.17412153053333     -1.08744226357022
  C          -9.24020861973726      0.50022624571369     -0.55922486295957
  C          10.14766151237290     -0.59095595766435     -0.10513363687449
  C          -9.77692264896959      1.69413983336045      0.21227136700629
  C          10.22710759544135      0.33806289162715      1.09667642167669
  C          -9.46241688679214      1.57384215646981      1.69685686125147
  C           8.84041243092618      0.44955537665704      1.72932801766401
  C          -7.96994682375433      1.32339468982031      1.89496605893857
  C           8.72376333403384      1.48138952471198      2.83942920980691
  C          -7.59200814480218      1.00406584802425      3.32997602815515
  C           4.39101606478200      2.88460492195072      1.27286349597887
  C          -5.22695267297916     -3.16987017343262      1.75981602432873
  H           9.76283141240584     -1.35285106116816     -2.44806561119446
  H          -9.16935008006862     -0.02193766938019     -2.43263129526013
  H          12.06168038481245     -0.89639514366571     -0.21262139795761
  H         -11.39605951044876      1.85497172825671     -0.85461040478287
  H          11.53254917802528      0.45200306404726      2.56884319574925
  H         -10.71817024034338      2.97979733354400      2.14256011269401
  H           6.85744278719627      1.68790308832102      2.42159393355852
  H          -6.04192158359312      0.02294511710294      2.74220989928486
  H           0.79835499910663      0.91465915463375     -1.50933150230981
  H          -1.48487432015341      0.78126695552461     -0.76893768388662
  H           1.21779126845683     -1.95322393854406     -0.61037853459811
  H          -1.34920946059496     -2.24029445428974     -1.00568943393050
  H          -1.01021335002852     -1.36745150189483      1.14905190740145
  H          -0.85644568111226      0.36447668930205      1.47950089316117
  H           0.77681089775217     -1.64731407866019     -2.90208928409294
  H           0.30039649811633     -0.09074704614976     -3.59717247133913
  H           2.67224767843898      1.15362524209759      0.71245363269218
  H          -3.26283747941816     -2.48221200115167      0.36488597431133
  H           3.24101542020620     -2.19126190449801     -1.87335776983174
  H          -3.38053339664339      0.11359073303023     -3.02069816879325
  H           5.61650115228584     -1.50855854040254     -2.20992557884520
  H          -5.85031119972867      0.33343868855975     -2.74149899315204
  H           7.40262548905738     -0.98244534043307      0.04183437711509
  H          -7.19694452544482      1.22203031882038     -0.59958018496201
  H           9.31766584889962      0.79661735088180     -1.52749219536578
  H          -9.75126995421207     -0.41196788200745     -0.23112098753161
  H           9.90482797930214     -1.59665489782477      0.26602758047751
  H          -9.28774444098030      2.60009896376218     -0.17148728672216
  H          10.54989149459657      1.32952577013196      0.75941063569133
  H         -10.01851316014855      0.71539321330175      2.09676539105590
  H           8.53493112004718     -0.53436245099449      2.11211621841292
  H          -7.40499219446350      2.20227503977488      1.55611665704743
  H           9.14117135139461      2.43366809529628      2.48186580570850
  H           9.28843597311216      1.16046050636542      3.71627526172192
  H          -8.22072677543316      0.17694377687197      3.68493467575661
  H          -7.77376664746646      1.87226175373550      3.96105614742418
  H           3.95988343319544      2.36111802665224      2.13061386099318
  H           5.03505508853491      3.68637308209835      1.62600814206254
  H           3.58655034373168      3.30349787382347      0.66200939828983
  H          -5.98124548844519     -3.54751254010001      2.44546878352421
  H          -4.74341160437182     -4.00938219016539      1.25180103997497
  H          -4.47602071980717     -2.60637373347142      2.32196544412834
