19
Coordinates from ORCA-job 17429 E -365.198807874708
  O           2.68869152060966      0.41455585793263     -0.40571244003520
  N           0.59712165670206     -0.24818814596233      0.25163279922511
  C          -2.20598164958448      0.29490252216790     -0.06448254973741
  C          -1.15541415653568      1.39115632073180     -0.25712195473239
  C          -1.62260969515424     -1.08315716226721     -0.38626833780101
  C           0.10705307433516      1.09055061219365      0.54957496780819
  C          -0.35069411217564     -1.33522420578390      0.42343845863519
  C           1.85447154796915     -0.44821860365256     -0.21399674912161
  H          -2.55263050671094      0.30512586229584      0.97538770867602
  H          -3.08074709303901      0.49080613974773     -0.68823804945051
  H          -0.88800061534256      1.46404997768427     -1.31549098740150
  H          -1.55362212138452      2.36302980687026      0.04352860125262
  H          -2.35042384394018     -1.87020122440446     -0.17444497309573
  H          -1.38069845291563     -1.14068268281980     -1.45194363886073
  H          -0.11278357833067      1.15523530721548      1.62249330353924
  H           0.91040076085618      1.78821746404252      0.32500622202272
  H           0.13173879594155     -2.26583644613039      0.12149192720798
  H          -0.60580112416902     -1.42666419778162      1.48706203608099
  H           2.05568859286881     -1.51737720207981     -0.41060934421198
