101
Coordinates from ORCA-job 176079 E -2082.333758207040
  O           4.64094834652671     -1.17902041962684     -0.16345814535638
  O          -6.85515942787740     -2.54259319171030      0.11151167529989
  O          -6.12831283945211     -1.52090623026327     -1.70284075193519
  O           5.52571855148771      0.90443724729451     -0.47426470889384
  O           6.93959142780555     -1.99337349969583      1.26201648463772
  O           9.23395197716739     -0.43639608048286      0.61816881474181
  O           8.68699505921058      2.41820686352662      0.63202771974809
  O           7.05958750723286      4.12338990593109     -0.71874151129198
  O           5.10344684733132      3.35579020949944     -1.43974362843416
  C          -2.04636902433723     -1.32233638291966      0.22578333388792
  C          -1.02685091821993     -0.45405887249758     -0.56648239745159
  C           0.36686600156288     -1.09871205623764     -0.89629888954586
  C          -3.19981242959622     -0.34904109840999      0.74005651131390
  C           0.93861375103816     -1.61265651221170      0.45739740152222
  C          -1.34609343096960     -2.00305801446653      1.41856271506312
  C           2.44549893065034     -2.01505137302905      0.48786226143345
  C          -0.00609860562151     -2.64701629233420      1.07097964828573
  C          -3.84220493611439      0.33454020804708     -0.46820999606859
  C          -1.70067966260242      0.19305655282271     -1.78290173036458
  C          -5.28456676177219      0.81223747983838     -0.42496817233910
  C           1.28690919269347      0.03152278072556     -1.40731440937810
  C          -4.23508051851503     -1.15303237231448      1.56684847811930
  C          -6.20980117525858     -0.17551563219971      0.31822601560167
  C          -2.64904780089637     -2.42524193107652     -0.66802625255329
  C           3.24067291792596     -0.82572389790823     -0.08723889338255
  C          -5.59794204682105     -0.47859604393542      1.69342442779533
  C           0.30281173239833     -2.18932703227023     -1.98588536977481
  C          -3.12753787219531      0.57875315810491     -1.56183559058362
  C           2.76227870454683     -0.35414109965746     -1.44780789657381
  C          -2.66288851713586      0.76884276833257      1.66973643618959
  C          -5.39420985084277      2.24230327921950      0.13767514581032
  C          -7.64593539095072      0.39698211053643      0.43614227235978
  C          -6.82401676859662      2.80441880003106      0.19341148931157
  C           2.88405864906190     -2.19755816139575      1.95242266563657
  C           2.76642915574410     -3.31634282004918     -0.26090654779823
  C          -7.69385941201667      1.81803139665194      0.98939257639702
  C          -6.35689513535213     -1.45042192366974     -0.52920866395383
  C          -6.80116933443382      4.15299046570967      0.91940829926177
  C          -7.38668332278466      3.01890363983394     -1.21842184345232
  C           5.52281259664192     -0.25902433740977      0.34886768481402
  C           6.90813160993525     -0.90132718002761      0.36488745921664
  C           7.94699224794418      0.11324604975300      0.81247721237419
  C           6.34425808309066      1.92030392844655      0.03914035582213
  C           7.80243879378354      1.43510605152411      0.06010477451345
  C           6.09677544653192      3.18859982917665     -0.79783063776462
  H          -6.98470520401701     -2.35108677532316      1.04914996012914
  H           6.28061585578877     -2.62973272734940      0.95921250989187
  H           9.88772947473282      0.24963138559851      0.79958283326294
  H           8.51837526641083      2.47053691396077      1.58300744693350
  H           7.82250771056995      3.78488642421245     -0.20819200377675
  H          -0.75869759546291      0.36196768795514      0.10715303092424
  H           0.89047104400639     -0.73678307170977      1.12009898016610
  H          -1.15147986014657     -1.27530835861716      2.20751091508444
  H          -2.01233179677795     -2.75415540348540      1.84885066318304
  H          -0.14938237188643     -3.49106271026261      0.39481402678462
  H           0.41951094566161     -3.06292944621148      1.98445779318957
  H          -1.13733176059254      1.07879621679174     -2.09005602628287
  H          -1.67052647703729     -0.47480792551856     -2.64983317441713
  H          -5.62472457677474      0.84134741809432     -1.45916465905244
  H           0.97391041156110      0.34944033754569     -2.40328198499038
  H           1.17193130296943      0.90396346586174     -0.75455216649080
  H          -4.38887052105872     -2.13450060974824      1.12336160679907
  H          -3.82604431690397     -1.33030467903900      2.56334200782139
  H          -3.29384195321717     -3.09125447017855     -0.09654751679292
  H          -3.24237250246061     -2.02097985408336     -1.48441414796766
  H          -1.87096032384946     -3.04841736677993     -1.09567921084779
  H           3.14453130451632      0.00668619513905      0.62068079086003
  H          -6.26527266187696     -1.10568425115468      2.29763071561005
  H          -5.51930417712382      0.45285297955726      2.25402695953599
  H           0.10545760836159     -3.18175618884028     -1.58967989254245
  H          -0.47161240642359     -1.97258538472011     -2.71862640505939
  H           1.23989479000918     -2.24890777538403     -2.53479109289517
  H          -3.61562142785359      1.06797430698021     -2.40047340011383
  H           2.94762470202269     -1.14028337641232     -2.18214535035218
  H           3.36406963589223      0.50266646477235     -1.75009767180205
  H          -2.06452036657504      0.36801117538700      2.48734395401544
  H          -2.06842474305358      1.50165423052535      1.12927033554475
  H          -3.49160118993479      1.30939807639068      2.12337607489462
  H          -4.97397719995828      2.28862004920717      1.14353602654213
  H          -4.76645735595306      2.89053083216020     -0.47857442498216
  H          -8.10850378955890      0.37641935316484     -0.55295793102166
  H          -8.24757331408902     -0.26317992291140      1.06772648356670
  H           2.56884699795174     -1.35125606506246      2.56802991884454
  H           2.46833387050583     -3.10488315428776      2.38930384015950
  H           3.96962781029758     -2.27611570169289      2.01629228397262
  H           2.12359326306981     -4.12511601813246      0.08803117404511
  H           2.64376192849381     -3.23192811877991     -1.33671454867380
  H           3.79905839455133     -3.60983948296008     -0.07193360586738
  H          -8.73186488110201      2.16325545494402      0.99777907293018
  H          -7.36220051743457      1.82128578451088      2.03213128995199
  H          -6.41071449595822      4.04593038093485      1.93438781589733
  H          -6.16940607200442      4.87058278660750      0.39067286028508
  H          -7.80571206756057      4.57790111255415      0.98819473071662
  H          -8.40114478140265      3.42189726555011     -1.16992195169417
  H          -6.76947458577991      3.73306325841169     -1.76809924598709
  H          -7.42301731914242      2.10036582991069     -1.80318083025043
  H           5.23232559174286      0.04125802028930      1.37120626903991
  H           7.14033019604374     -1.21797818483226     -0.65865381354219
  H           7.77166172639653      0.30739268451844      1.88503971415372
  H           6.04706403262331      2.17274084678919      1.07383422920194
  H           8.15160240084241      1.30001681594576     -0.96446208079624
