25
Coordinates from ORCA-job 17768 E -427.530985758943
  C          -2.44671692145638     -0.99512607512359     -0.30496552340757
  C          -2.72323704684931      0.31786206637651      0.41800904762788
  C          -1.04649176173636     -1.50793756786832      0.02489021270908
  C          -1.74345830458027      1.38206322871763     -0.06445873433227
  C           0.02806834406922     -0.44303504400679     -0.01827121485314
  C          -0.30367252073749      0.91653054772160     -0.04814213591389
  C           1.38129273457011     -0.82841394886182      0.00264361501955
  C           0.71282666577990      1.87205555246734     -0.07205956987660
  C           2.37238058963681      0.14647421221776     -0.02570392583849
  C           2.04416107044577      1.49556189144383     -0.06551990770534
  C           1.76812865353144     -2.28180833495747      0.06206252196275
  H          -3.18775003738384     -1.75323408058935     -0.04142379952406
  H          -2.53279983274626     -0.83140492442871     -1.38450785665396
  H          -3.75045124072446      0.64858061594309      0.24852512836263
  H          -2.60888744137135      0.17078522202437      1.49742221662160
  H          -1.05444841959115     -1.95643717614382      1.02648867631381
  H          -0.78441661626577     -2.32219024547272     -0.65499519971846
  H          -2.00979417588981      1.67062324075480     -1.08852287300817
  H          -1.83323352772845      2.28998764331600      0.53706174767166
  H           0.44714641722679      2.92299958864577     -0.09087146188141
  H           3.41281226645973     -0.15580984138030     -0.01130047864429
  H           2.82461851816509      2.24584086041684     -0.08323330044041
  H           1.33012101985769     -2.78108786098859      0.93033145164508
  H           1.42567507948980     -2.82839903799347     -0.82107242605197
  H           2.85056648782852     -2.39109153223060      0.12249478991599
