35
Coordinates from ORCA-job 17897 E -994.093882508671
  O           3.90752622710299     -1.60666219794961      1.06420269674105
  O           0.92252734166909     -0.30430811256230     -0.51985618546812
  O           0.62518198798447      2.55288351542188     -0.57645231858182
  O          -1.35540497746402     -1.75247025029783      0.02727741138151
  O          -2.24817530021932     -3.76366907452389      0.31997883368283
  C           4.05746655349687     -0.79764736011223     -0.12497708823571
  C           2.82150097075153     -1.54724854616856      0.13286247382155
  C           1.55768127408999     -0.90576859916654      0.62667731474694
  C           4.14834174366989      0.69016549531881      0.09977953241625
  C           5.03648648832647     -1.35160784048654     -1.12956393901399
  C          -0.26790123653529      0.30263185596371     -0.28369430501763
  C          -0.39158621754862      1.68275000584579     -0.34616217000916
  C          -1.45008420304881     -0.39615169907925     -0.03166717087437
  C          -1.60523865542557      2.37318170465866     -0.17880921890785
  C          -2.68654775916103      0.26203690348970      0.14824010180208
  C          -2.76433879765039      1.65453641078245      0.07273325107174
  C          -1.26516227880996      3.76622908716152     -0.32440766129108
  C          -3.82979750555381     -0.57075965038634      0.39566502096181
  C           0.06138817726979      3.80697677975963     -0.55701586631651
  C          -3.72265737494802     -1.91032746867985      0.45545628330456
  C          -2.44597684792807     -2.58009798933272      0.27449782918941
  H           2.66446716175601     -2.46252306362707     -0.43389615787518
  H           1.77570768849403     -0.13873864368107      1.37151383360757
  H           0.89503832353758     -1.65284981008020      1.06744153793455
  H           3.46570219494286      1.03012014600427      0.87466856840014
  H           5.16394873381818      0.95789225328137      0.40021724937519
  H           3.91277834390609      1.22401565141589     -0.82277187646947
  H           4.92959636919658     -2.43211800632911     -1.22063112480854
  H           4.87326341409816     -0.89912751911523     -2.11021819630007
  H           6.06119235637137     -1.13143064764660     -0.82120812723768
  H          -3.71791657926218      2.14722912146931      0.21007649531808
  H          -1.92746940958539      4.61302439522410     -0.26291049055353
  H          -4.79207473285743     -0.09154051430115      0.53450761229359
  H           0.74730707053083      4.61821972485505     -0.72700256398664
  H          -4.56829254501488     -2.55580705712603      0.64130741489852
