30
Coordinates from ORCA-job 178939 E -841.496128363053
  O           1.11940412737863     -1.50597411629008      0.18902718346214
  O          -1.54695212582181     -2.70967970086703      0.42537001765898
  O          -3.39290534442801      1.54974685391732     -0.30750141214055
  O          -3.67225579404406     -1.02805721447212      0.08758088677518
  C           0.14238716474368      0.54077017168836     -0.16067296238280
  C           1.57672985388984      0.71120545776549     -0.17639855152193
  C          -0.06471569717323     -0.81969261501637      0.06257379926613
  C           2.11106746185968     -0.56686539675387      0.04087369736852
  C          -1.32971673734478     -1.39357110293450      0.15580650990729
  C          -0.94998189124554      1.40229252810322     -0.29248913055236
  C          -2.21511476149445      0.85399943549206     -0.19898569867063
  C          -2.41282490500030     -0.52947317841800      0.01494084325173
  C           2.44685336162427      1.78607255769448     -0.34626991674007
  C           3.46611890374363     -0.82399272830431      0.09526428557655
  C           3.81406993450122      1.54973489752434     -0.29548506777764
  C           4.31705204522799      0.26319205312956     -0.07748076641987
  C          -1.06568730069261     -3.62736903484167     -0.56005538957797
  C          -3.32195908728087      2.94659693390162     -0.53457051022930
  H          -4.28069180006555     -0.28359455305681     -0.02205042244980
  H          -0.80296819796372      2.45884261028958     -0.45690115947297
  H           2.06668578686725      2.78550820356282     -0.51493328372567
  H           3.84097447401232     -1.82360900674328      0.26673282662639
  H           4.50415125418268      2.37316601108352     -0.42530517240642
  H           5.38744959514604      0.10864103514663     -0.04180866500802
  H          -1.35713412142052     -4.61772470310408     -0.21712993510749
  H          -1.53030032332040     -3.42452956483586     -1.52896333577242
  H           0.02037426162839     -3.57510794642565     -0.65435793239907
  H          -4.34923130149931      3.29856302171640     -0.58980299805507
  H          -2.80620509885205      3.45235460937649      0.28668072475086
  H          -2.80913573715841      3.16620348167174     -1.47539746423369
