65
Coordinates from ORCA-job 179289 E -1722.007902579223
  O           2.24180493376727     -0.91313945331685     -0.74826069276318
  O          -0.68365998475371      0.68368213651247      0.55991088844736
  O           0.53103960705948     -2.92414569661032     -1.74513336347565
  O          -1.60975216463458     -2.08694103199407     -0.27349179108607
  O          -0.33567671723267     -0.10586897150087     -1.62194497527523
  O          -2.68798644918474      0.89849931186616     -0.53236021959236
  O           1.72645458460831      1.30842045751247     -0.64125762910299
  O           4.56395230635390     -2.44545078846928     -0.23436050575678
  O          -2.73707731724825      0.83559367811240      2.97223254864919
  O          -3.44691010158177      3.39995250500843      0.43669925210774
  O          -5.31312977230644      0.47102144979169      1.66358733143652
  O          -4.04210778354716      0.35666948464512     -2.91770529464314
  C           0.73640049553196     -2.75598732155512     -0.34046944635881
  C          -0.31461305877287     -1.73136301034254      0.17773988101972
  C          -0.01704225769687     -0.26578032060558     -0.26862355460716
  C           2.14755495540576     -2.17277582355744     -0.09661133960899
  C           0.58609550468247     -4.16663678962801      0.28781911839781
  C           1.47004696285259      0.06600392769251     -0.09458848107790
  C          -2.06158422771249      0.59575378633511      0.71579396258283
  C           3.31265314869013     -3.00624607218635     -0.61267557919550
  C          -2.50403242760744      1.60239546888746      1.78311881366264
  C          -0.73968136511566     -4.87276705838673     -0.01712903219404
  C           0.85762100872240     -4.19438851127542      1.79449645776777
  C          -3.77334863808245      2.34179388530687      1.32310530131871
  C          -4.77448418170304      1.35951760398480      0.69467075529765
  C          -4.09841475503236      0.61032971050812     -0.48332124388663
  C          -4.67131841965176      1.01316271841552     -1.83008976454322
  C           2.84727133124074      1.98425481386345     -0.21499742490871
  C           2.77408803548984      3.37263759789548     -0.27021960272656
  C           4.00763582626753      1.35206764840187      0.22269179830529
  C           3.86305414444093      4.13415709858049      0.12574737977107
  C           5.08785461827887      2.13140902889731      0.62584981645795
  C           5.02411101233197      3.51759840153620      0.58265393760766
  H           0.68002275267785     -2.06255935321203     -2.16551124450244
  H          -1.48906971478932     -2.50058456413137     -1.14116582666999
  H          -1.30355031807367     -0.11037943045912     -1.67446641075440
  H           4.72101992409577     -2.63497360800559      0.69676082319125
  H          -2.81109287464111      1.43670317600985      3.72183110484300
  H          -2.91884638370956      3.02132182524118     -0.27911822906379
  H          -4.60602811570175      0.21101983135008      2.27153763794885
  H          -3.17879034491112      0.76080831625380     -3.05529357600654
  H          -0.33200282707077     -1.74858758585883      1.26865155809332
  H           2.28228902807273     -2.01920678588190      0.98312980579397
  H           1.35872451149595     -4.76217686077996     -0.20336352398047
  H           1.70760090096479      0.06461038322493      0.97983884589374
  H          -2.37857536202401     -0.40635365281160      1.01640767505488
  H           3.29221025451417     -3.01253743701660     -1.70091611581795
  H           3.23006568320278     -4.03757138757471     -0.26458120168760
  H          -1.70581628358847      2.33206154977214      1.93602838416185
  H          -1.57358220970008     -4.42628486458468      0.52189695782226
  H          -0.96402418741469     -4.85369365778964     -1.08279650626102
  H          -0.65993115177719     -5.91888617012311      0.28577543664446
  H           0.12505433302805     -3.60190681426913      2.34649647693310
  H           0.78045997336511     -5.21957138450116      2.15942774730517
  H           1.85160597790948     -3.83132279095923      2.05821433623452
  H          -4.24670516555098      2.80440010556125      2.19154455922712
  H          -5.62009297958035      1.93696752441873      0.31643843460006
  H          -4.22213483838692     -0.46645850618864     -0.33313178074511
  H          -4.61891868144777      2.10291191384798     -1.93948474558917
  H          -5.72350106107015      0.72575281735913     -1.85519371983054
  H           1.85898169437545      3.83165676668849     -0.61934952668701
  H           4.08726469795748      0.27484459578301      0.20139443191945
  H           3.80183519512169      5.21420897404065      0.08298551336349
  H           5.99365639050746      1.64121086545679      0.95990992729977
  H           5.87269832828932      4.11322834481395      0.89234844923875
