20
Coordinates from ORCA-job 17927 E -461.268709673394
  O           1.04605692206777     -2.00131814901453      0.04389356176001
  O          -3.27171136663354     -0.02973218681586      0.31590314336073
  C           0.84596021289627      0.32746547367636     -0.30551374619748
  C           2.33597994044481      0.42864876914328     -0.49468049577841
  C           0.23521241404299     -0.90082082367904     -0.02198633825263
  C           0.01867395064771      1.44140850776522     -0.37306593019684
  C           3.10998506993375      0.41463600064585      0.82922764744966
  C          -1.13457272968134     -1.00401287871335      0.18149996617775
  C          -1.35533949149369      1.36693622401775     -0.17173558240950
  C          -1.93043429274401      0.13331504498309      0.10704352045853
  H           0.51177514664768     -2.78273213894920      0.22333300205699
  H          -3.71129643204776      0.82439776889751      0.23968483424683
  H           2.68245136057696     -0.39770271273086     -1.11948801794497
  H           2.55798733390810      1.35111834942848     -1.03658039453823
  H           0.46464080613276      2.40392520083066     -0.59473905636769
  H           2.92049369023490     -0.50906352717620      1.37704895601745
  H           4.18528069892308      0.49095754675555      0.65318331561631
  H           2.80835505380804      1.25153675846550      1.46254746517130
  H          -1.59772426726485     -1.95951168708153      0.39813072880856
  H          -1.97010402039965      2.25718445955130     -0.23576757943837
