43
Coordinates from ORCA-job 1794427 E -1297.490319614544
  O          -0.87130396812810      0.61622874487097     -0.38373208858011
  O          -4.45200360327378     -0.82600951121002      1.38986509304292
  O          -2.55024112542799      2.90788406287645     -0.18385068317805
  O          -4.82174162892566      1.88509412590850      0.96909306144511
  O          -4.68665005622718     -2.75978972018756     -1.66448337020875
  O          -5.41591443324151     -3.03338177299650      0.40659143275707
  O          -0.15889169282290     -0.34590085513217      1.53355719718633
  O           7.19675115395553     -0.74430483771112      1.48237427199767
  O           7.95045362767602      0.50036503438922     -0.77705699716239
  C          -4.27270540740756     -0.97550776400756     -0.01434758886139
  C          -2.23461451115380      0.50893395850441      0.05325361376860
  C          -2.77412794455693     -0.86818133317506     -0.32873197282429
  C          -5.05071799574320      0.13752824639281     -0.74261955684426
  C          -3.00413935819796      1.64409059874715     -0.61844358625548
  C          -4.51776019226616      1.52191101786340     -0.37488708106066
  C          -4.83744414019471     -2.35011357517985     -0.39462289580603
  C           0.08870619557001      0.17148688515175      0.46880028617040
  C           1.42256320860533      0.40786879077025     -0.09708557649161
  C           2.51907890630781      0.01566306992999      0.56523519915638
  C           3.90660557852555      0.17622574231927      0.15832077427744
  C           4.90888638430776     -0.34518802691863      0.98823399131333
  C           4.28680688018902      0.82812525630317     -1.02145064931137
  C           6.24725126246396     -0.22743918025035      0.65807827966369
  C           5.62502260906049      0.95030788920033     -1.35713389262939
  C           6.60560426357672      0.42612071666086     -0.52530894497872
  H          -4.96147616031642     -1.59937045010512      1.68769029895202
  H          -3.02322723236299      3.09395766980441      0.64092545914049
  H          -4.75644396589794      1.08482208930207      1.51386190431696
  H          -4.16672363844857     -2.12503723980580     -2.17488286858513
  H           8.06627983342915     -0.56748255427097      1.09923690045481
  H           8.11243245546049      0.97034769367717     -1.60203414677470
  H          -2.26406698987101      0.62259026904601      1.13609249723160
  H          -2.22692153904611     -1.63575455238415      0.21808466777292
  H          -2.59010350514636     -1.01674304652167     -1.39812513114477
  H          -4.96507912794057      0.00856382594077     -1.82535022088709
  H          -6.10946571180336      0.07209901350276     -0.48575139545091
  H          -2.81247112840293      1.59649180605948     -1.69566844749817
  H          -5.00882330206676      2.27196776202293     -0.99855209098886
  H           1.45882225200225      0.90953297787507     -1.05413241150005
  H           2.35732573905843     -0.48020383627489      1.51751234937755
  H           4.64836152898323     -0.85250318852303      1.90827214411699
  H           3.53889417162247      1.24694664822795     -1.67954258525185
  H           5.91481530807625      1.45780254930732     -2.27068823986824
