37
Coordinates from ORCA-job 179640 E -1087.370983476729
  O          -4.93551289053187     -1.87244550691536     -0.16336205231383
  O          -5.87298066645056      0.23192525339302     -0.05047542823671
  O           4.23132669649500     -2.02622670460046     -0.22400503917835
  O           6.02767050556051      0.05500031815451     -0.08221275714291
  N           0.17958261042159     -1.38549831552026     -0.12175305705185
  C          -1.76231996322535      0.01231109032832     -0.04690936597514
  C           0.48790993119048      1.02520291813503      0.00325719360894
  C          -0.33174845385976     -0.11712229280575     -0.05489510079366
  C          -2.33925382001761      1.30896228154007      0.02066716532482
  C           1.91497531827481      0.84103781252624     -0.00610406230223
  C           2.41112157701680     -0.48308940728497     -0.07788870707703
  C          -0.12477107781099      2.30420754708130      0.06896945983204
  C          -2.59267724701908     -1.13686321485212     -0.10510126014214
  C          -1.47993019219811      2.43709089473339      0.07762872332049
  C          -3.93685985746044     -0.93681822920871     -0.08953746824942
  C          -3.75125555435385      1.46860430830395      0.03195358473216
  C          -4.50956056943922      0.34195723037960     -0.02202819688211
  C           1.46643065604533     -1.55140855781446     -0.13486180330180
  C           2.84630522420902      1.89303425242073      0.05749591616170
  C           3.79960028356525     -0.73640304253294     -0.09467139714738
  C           4.68855887472778      0.32390006218264     -0.04128187470922
  C           4.19587265828223      1.63463666814963      0.04165912549767
  C          -6.15816828260575     -1.16645453361523      0.04395565415744
  C           4.90323587104510     -2.57305382125177      0.91454866084237
  H           6.52059948504818      0.88250810716953     -0.05801313429377
  H           0.48925746473046      3.19230708804828      0.11195765574136
  H          -2.14918924511085     -2.11848577671963     -0.16185501941293
  H          -1.92586847805397      3.42311314958898      0.12823280904747
  H          -4.19611558029536      2.45298987264061      0.07914480045964
  H           1.83821733989804     -2.56753478049063     -0.19724233287512
  H           2.51315756824561      2.91822717762343      0.11773792276237
  H           4.90308161255843      2.45659942589849      0.08459488525473
  H          -6.87391770024450     -1.44279366474558     -0.73019680438669
  H          -6.54544591348274     -1.39085384201240      1.04395335475668
  H           4.24570435104528     -2.55441440301359      1.78866017399429
  H           5.13995590097651     -3.60378741964381      0.65922878941680
  H           5.82173656282358     -2.02661694527008      1.13104998656132
