10
Coordinates from ORCA-job 180 E -193.130674642203
  O           0.00051006142201     -1.24273759926467     -0.51338321653625
  C           0.00010442412992     -0.08109006984149     -0.17842124781644
  C           1.28601083366596      0.68554478904609      0.04289866395292
  C          -1.28634015565396      0.68482196338344      0.04227107319058
  H           1.32707380690486      1.06453048337404      1.06753551644717
  H           2.14195264648160      0.04152585752523     -0.14547441569914
  H           1.32505031006857      1.55532849498666     -0.61823994954804
  H          -1.32613514635678      1.06846310929778      1.06520333101642
  H          -1.32752326220512      1.55152898698944     -0.62279866294223
  H          -2.14182751845705      0.03900598450348     -0.14196309206500
