55
Coordinates from ORCA-job 1810793 E -782.686716389513
  O          -7.79785027933507      0.34375743891153      1.01886139830033
  C           2.56278821002674      0.61443779326810      0.04568968997633
  C           1.25581253932175      0.05948175582827     -0.53667512059356
  C          -0.02179731334584      0.71229429702510     -0.01213361238889
  C          -2.60533366591276      0.59009201062403      0.00890783289168
  C          -1.28530776192637      0.04689799349189     -0.55463832678205
  C           3.74590267584110     -0.25677871244505     -0.39763413711245
  C           5.08098855274104      0.06549290458202      0.27106960868770
  C          -3.77302170399484     -0.29511475741703     -0.44737714807173
  C           6.19074148605056     -0.90181924747391     -0.13634653583579
  C           2.77009946957732      2.08504522537253     -0.32359636636145
  C           7.53407676304268     -0.68936282529520      0.57288749519096
  C          -2.82521778339309      2.05698017455220     -0.36717851476329
  C          -5.11902055818076      0.03027244476017      0.19612574560898
  C          -6.20826208817573     -0.95004626239524     -0.21475004570516
  C           8.15046384230847      0.67464178914829      0.25584795930915
  C           8.50963802290935     -1.81278521490379      0.21826845608487
  C          -7.57582840432203     -0.65422035653129      0.37254056439558
  C          -8.65282788344167     -1.68507497058660      0.10975765691205
  H           2.49296402001883      0.54560374020502      1.13951276796477
  H           1.28721616738703      0.15134456979120     -1.62939212206436
  H           1.21084216553422     -1.01448476549032     -0.32541010906775
  H          -0.02945324605996      0.66041855567193      1.08319053701588
  H          -0.02554436692405      1.77305418804804     -0.26893474584998
  H          -2.55026838556697      0.52479731872261      1.10360069994358
  H          -1.30173182778948      0.13821680497615     -1.64774419358994
  H          -1.23254208711259     -1.02656424114627     -0.34213495592008
  H           3.49912016318120     -1.30484045027257     -0.19588504599957
  H           3.85725363597948     -0.17668524146599     -1.48601910743060
  H           5.37858070913781      1.08722984399423      0.02777293206056
  H           4.95573211653961      0.03220422280041      1.36001723478873
  H          -3.86353093603051     -0.22688743236687     -1.53880214638249
  H          -3.51996744183761     -1.33903445325698     -0.23039563591275
  H           5.85287926012384     -1.92569070764096      0.05820708910329
  H           6.34931924264122     -0.83658835353788     -1.22000382451393
  H           1.94349951163753      2.70756489547699      0.02001303047243
  H           3.68245588422091      2.48682488667959      0.11801579115755
  H           2.84585724124654      2.19913037941779     -1.40940805373911
  H           7.34836489667181     -0.73308543177904      1.65349603881977
  H          -3.74512371918867      2.45096638480263      0.06529716206367
  H          -2.00768083428343      2.68812123614817     -0.01800894678610
  H          -2.89153599314232      2.16702458131115     -1.45406727431813
  H          -5.02074153258341      0.02136197250444      1.28545683617323
  H          -5.44116541185512      1.03881185173090     -0.06500261300395
  H          -6.32237252199828     -0.96577243855425     -1.30634062029999
  H          -5.93733204261878     -1.97813859765360      0.05369612866967
  H           7.51143402652466      1.49814251259381      0.57673427244026
  H           9.11534691478240      0.79169076074109      0.75404166120582
  H           8.31724404067978      0.77985363817817     -0.82050973840629
  H           9.45776236853257     -1.69743224796051      0.74814892194188
  H           8.09792989569816     -2.79186340813683      0.47336485246897
  H           8.72631096541178     -1.81192310771761     -0.85404927818317
  H          -8.42612667323844     -2.59678297273277      0.66993698012962
  H          -9.62087139262359     -1.30270066148711      0.42602305971770
  H          -8.68320993288711     -1.95970931311076     -0.94704518441247
