42
Coordinates from ORCA-job 181215 E -922.958513856493
  O           1.21174596624944      0.79001056074436     -0.23847252990268
  O          -0.37341802105357     -0.84072823738380     -0.10736644356812
  O           4.30991335258569     -1.88434038805351     -0.11546685952270
  O           4.80474947587873      0.87911311822373      0.31826264634352
  O           1.66875298333265     -2.79377560853422      0.49053104739892
  O           1.69713097232645      3.65678142576365      0.12525805117465
  C           3.29004283101780     -1.01085898563168      0.34581236475030
  C           3.58191634820883      0.37632884089877     -0.19931291277663
  C           1.90490701934302     -1.50206252435443     -0.05910813950671
  C           2.45233208281368      1.32495028642592      0.20394132805452
  C           0.86881781890392     -0.45656603207906      0.34399105185789
  C           2.60952565334173      2.70641881522654     -0.40655511172099
  C          -1.45144778940113     -0.01942440266579      0.35227734061831
  C          -2.74940094583716     -0.59642102408730     -0.17160177992560
  C          -3.96534388564035      0.21142618207098      0.27613478223516
  C          -5.28328477733177     -0.34720634078106     -0.25461676784063
  C          -6.50559416935346      0.45298568233012      0.18956275844583
  C          -7.81789348246112     -0.11216807567591     -0.34744694361107
  H           4.03819241393967     -2.78459564160922      0.10544525601020
  H           5.47180356555271      0.19286081472696      0.19226990447485
  H           1.37203004865121     -2.69927701935421      1.40368637023970
  H           1.98390557451453      3.89318447634844      1.01373420815341
  H           3.32775706580898     -0.94995101161724      1.44534094009769
  H           3.62217672892476      0.31960720847392     -1.29520890730913
  H           1.85480998200637     -1.62376962546674     -1.14242576065026
  H           2.45299456161792      1.41556421899368      1.30170931220489
  H           0.86077444838139     -0.33638930642591      1.44767789320252
  H           2.39308264699259      2.64149247271982     -1.47397742070860
  H           3.64667878899588      3.02873972146325     -0.28119734848636
  H          -1.44705417034132     -0.00553401493265      1.45145253589999
  H          -1.30649489457500      1.00559162502062      0.00220260563502
  H          -2.70248287061582     -0.62593477216605     -1.26382736086091
  H          -2.84114770592769     -1.63255291788300      0.16715596176289
  H          -4.00246964525268      0.24215171903636      1.37111759399269
  H          -3.85515205209853      1.25031506703725     -0.05388011709924
  H          -5.24847014331453     -0.37598742185921     -1.34953104624671
  H          -5.39372013827916     -1.38745453917122      0.07233021727318
  H          -6.53906164366001      0.48081253225163      1.28394359035094
  H          -6.39294925714380      1.49214947193122     -0.13714182636744
  H          -7.97067707038010     -1.14013083236220     -0.00898193326793
  H          -8.67390371777195      0.47839700622144     -0.01515624917716
  H          -7.82349640998973     -0.12113894411728     -1.44032172360820
