52
Coordinates from ORCA-job 181681 E -1341.051403670947
  O           1.20672710482644      1.94314162081359     -2.27826205995220
  O          -1.97910882412853      2.81117663941328     -1.27407393662983
  O           4.61097836513418     -1.73520420575514     -1.79210616647857
  O           3.60606594559598     -0.81534897419785      2.64880945675039
  O          -4.33267151651308     -2.47844360831132      0.75897445181192
  O           4.89851779870958     -2.21542170411973      0.81199369378950
  O          -5.58392938034746     -0.92422738526322      2.46569899868442
  C          -0.03678291140777      1.77839317270552     -0.31786419069835
  C          -0.71675081597471      0.85496269912694     -1.34728256057461
  C           1.38629417258424      1.91737148358400     -0.86527499312244
  C          -2.14486776271825      1.40428105344020     -1.41527749044904
  C           0.11330649744144      1.08448914422385     -2.62410563903002
  C          -0.87545595463168      3.06763993375493     -0.39734406353387
  C           2.31501527295112      0.80266674408355     -0.41238010118079
  C          -3.06302569739518      0.81376573340032     -0.35998341868292
  C           2.48511664402145      0.54564484723230      0.94635814395278
  C           3.01965143971182      0.05766712893250     -1.34839248444108
  C          -3.25426080245117     -0.57123899876493     -0.30318727004787
  C          -3.74019959161562      1.61975483522796      0.53758165553068
  C           3.88812140494846     -0.95698000901079     -0.94516946029435
  C           3.35205412624734     -0.46203360006082      1.34835141654565
  C          -4.09575850566358     -1.14686365236907      0.63792295273915
  C          -4.58573909544033      1.05152752599040      1.48939833616042
  C           4.05556176871121     -1.22453043920502      0.41415933318717
  C          -4.77014201409055     -0.31751833493693      1.55366152154790
  C           4.49127486818459     -1.49306764194978     -3.18216926213155
  C           2.93482134064387     -0.11025308870323      3.67850662073633
  C          -3.67671870144335     -3.35575949242167     -0.13734529808276
  H           4.87797720022764     -2.23532943892230      1.77858763202316
  H          -5.99374504366132     -0.24789976529226      3.01651247184441
  H          -0.05811824051387      1.35553328014629      0.68266366333087
  H          -0.68660065155199     -0.18702629680369     -1.04029051901528
  H           1.82646317138877      2.88244373751559     -0.59797861254652
  H          -2.58671546103376      1.24663649039910     -2.40370891836001
  H          -0.45747283420849      1.58927097410692     -3.40467761141622
  H           0.49292433776863      0.13764584208644     -3.01968423932147
  H          -0.31396448926434      3.90086577496492     -0.82214335528480
  H          -1.24374718651279      3.35765623155487      0.59112727218384
  H           1.95243437433314      1.13018274929959      1.68187065189330
  H           2.89319412336916      0.29195373073803     -2.39284206948330
  H          -2.74008175259583     -1.20551131618689     -1.01113129263551
  H          -3.62262590626703      2.69220239382552      0.48656196330699
  H          -5.11354769466703      1.68771779560061      2.19233615554181
  H           3.46507097248950     -1.64952842852012     -3.52881659179349
  H           4.80546845065499     -0.47744736251368     -3.44041418694027
  H           5.14944334293580     -2.21014438210967     -3.66725295943794
  H           3.27268482981858     -0.54695387393046      4.61532083707780
  H           3.18972145432019      0.95309724564096      3.65963556150280
  H           1.85055294988555     -0.22516113319952      3.59307729679623
  H          -2.58863262593303     -3.28827858043159     -0.03874089241269
  H          -4.00166239809185     -4.35758644106405      0.13308654068105
  H          -3.95754509878107     -3.15098365376446     -1.17526398364078
