77
Coordinates from ORCA-job 181744 E -1730.763667429523
  O          -0.40712846831080      1.67842060405715     -0.55926054806492
  O           2.74621637278421     -2.36070208315303     -0.29577495715140
  O           0.29295580136398      0.64723686128596      2.27581084322223
  O           5.16068297481680     -1.36721002754020      0.25543148782784
  O          -7.01620813402558      1.95837756343166      1.07671508345979
  O          -8.21883093125923      0.29991433515844     -0.71819885222095
  O          -4.77660865609357     -1.82136439436070     -2.11092108030147
  O           7.30133958547666     -1.88305090232536      0.10926208520372
  C           0.18753825573526     -0.61401081048130      0.23100343851831
  C          -0.63145850605247      0.27845676381403     -0.80074687632957
  C           1.63213120528306     -0.22326224881227     -0.16052051820956
  C          -2.63784710054088      0.37149322362070      0.72071945998216
  C          -4.18758090119724      0.28262840804093      0.83840001046224
  C          -2.09733286942399     -0.02583452102703     -0.63138374340230
  C           0.08304566178852     -0.01879164001783     -2.10974615530531
  C           1.57542529897255     -0.08976998516709     -1.71083350678733
  C          -1.80911331173756     -0.37273156221175      1.81658270036898
  C          -4.75306873662637     -0.97386630013565      0.13447467938725
  C          -0.33475036544878     -0.10668792278338      1.55937308089639
  C           2.80099676106764     -1.08628794280190      0.35370528706052
  C          -4.75401111567200      1.54401435637013      0.13460275841474
  C          -0.11344013921993     -2.10890374927867      0.03144048221075
  C          -2.81658454001327     -0.70170224704603     -1.52904774617153
  C          -6.28660504933984     -0.95967355833894      0.07239900830062
  C          -4.57889780756236      0.26240564244315      2.32378413132829
  C          -4.17102124132200     -1.19356022576878     -1.26300474872835
  C          -6.26493639782520      1.58384898762899     -0.09076643612817
  C          -6.80313612488935      0.27139524822607     -0.67430871332983
  C           4.12600314093237     -0.42090622907158     -0.08557062258865
  C           2.76518047593196     -1.28116734402175      1.87041109426940
  C           4.45317775522526      0.93409919098413      0.49995091295417
  C           5.85044647041699      1.34849794989209      0.12578709148098
  C           6.46211372760905     -1.02062087021483      0.06126578486819
  C           6.77764314080143      0.41474157719191     -0.14287334103846
  C           6.09874460686503      2.82935818036527      0.07740847815043
  C           8.19975055086507      0.68316812889918     -0.54105554332613
  C           5.68611144980122      3.43720044787050     -1.27107560483137
  H          -0.18397892022305      1.84388251122114      0.36549194050144
  H           3.59818837611269     -2.79148894111928     -0.14662500916564
  H          -6.64150210867032      1.53428814258641      1.85356722189152
  H          -8.50439247905434      0.77984409535786      0.07212690602213
  H           1.79675201374287      0.76282437566277      0.26830472684808
  H          -2.39400362807777      1.43004244738476      0.85104139310397
  H          -0.24973548043936     -0.96638573204947     -2.52784230884383
  H          -0.12712277476382      0.76332967894084     -2.83744721650014
  H           2.10337743205944      0.80653119614075     -2.03361172349565
  H           2.05733689557634     -0.94474209206281     -2.18017579525723
  H          -2.03775377124098      0.01953903981041      2.80290479546827
  H          -2.02723351589111     -1.44083886352077      1.79723877438314
  H          -4.43422944043825     -1.85827489811742      0.70212639074084
  H          -4.46054791123519      2.43682710670447      0.69313753579509
  H          -4.28054552821486      1.62811938055897     -0.84645059157957
  H           0.33184711833157     -2.69635491765216      0.83133757188465
  H          -1.17996073729231     -2.31301566957171      0.00340045944256
  H           0.32601847580632     -2.46724136627700     -0.89444022786241
  H          -2.40976318753940     -0.98286536275724     -2.49128439809115
  H          -6.63747651505509     -1.84894730388058     -0.44725856833046
  H          -6.71350332014727     -0.98856984756874      1.07649094200236
  H          -4.15539994723726     -0.60270959309444      2.83342526186154
  H          -4.23198739876813      1.16206805512819      2.83627090163186
  H          -5.65534522796132      0.18249358014863      2.46475294188670
  H          -6.48816510123933      2.38085691669134     -0.80237042410337
  H          -6.46494033391911      0.20600937445770     -1.71130883243098
  H           4.11623432554883     -0.34387159049892     -1.17609313788564
  H           2.66922883445145     -0.33503452001654      2.39951536068701
  H           1.91396424542637     -1.90133110272051      2.14379446848814
  H           3.67150425790890     -1.78763805502883      2.20177799841914
  H           3.74243789348625      1.67340728744561      0.12623389264151
  H           4.35260237393288      0.93042225169461      1.59014052613865
  H           5.51935331482203      3.30310040200847      0.87569475686998
  H           7.14591896765680      3.05532544040291      0.27522663625712
  H           8.88657822797697      0.39576044053294      0.25774940108755
  H           8.46836594769791      0.07819277374041     -1.40819414777478
  H           8.36528531809473      1.72915400674839     -0.78686593766105
  H           5.82049361453550      4.51990840233292     -1.26402542346634
  H           6.28738311311230      3.02229667099714     -2.08131008206751
  H           4.63739974195140      3.23225437451654     -1.49537088398919
