34
Coordinates from ORCA-job 1832 E -690.819137873840
  O           2.73493066043939      2.39186996314457     -0.18159834661271
  N           1.03718402191773     -2.82221244894073     -0.01123395885076
  N          -3.87342365720132      0.50194147801109     -0.04452561510341
  C          -0.56547459002808     -1.32610106325391      0.49739327770060
  C          -1.88263602041182     -0.71712494124543      0.85372956699643
  C           0.64949654566708     -0.62069733705910      0.20479901897662
  C          -2.57396553603900     -0.08078197187991     -0.35718383570842
  C           1.63264288545211     -1.58424902156179     -0.10558045109636
  C          -0.28012144691480     -2.65766821466958      0.35513765258434
  C           0.98328310074381      0.74340267846356      0.19063467881347
  C           2.93769843925671     -1.21896472955228     -0.43004834261903
  C           2.28089804039608      1.10153678510005     -0.13123972677155
  C           3.24962291287965      0.12439472347202     -0.44011854003886
  C          -4.64017273292744      0.75789939916915     -1.25128405130057
  C          -3.76760960096966      1.70478896177857      0.76253178983255
  C           1.81735082769409      3.42571831205358      0.11257755196667
  H           1.49644259519464     -3.70335130046386     -0.14787582616658
  H          -2.55101228662189     -1.47192976003983      1.27353324080056
  H          -1.73051980984712      0.03408274448695      1.63346178199917
  H          -2.72838989953095     -0.86127087597935     -1.10505830548971
  H          -1.90113949364261      0.66466336217792     -0.81832763036604
  H          -0.92366943468867     -3.51140845374435      0.49281938728945
  H           0.23453951889248      1.48485951670354      0.42607229698905
  H           3.69074720194358     -1.95993080544843     -0.66815911559770
  H           4.24759532327935      0.46075319959041     -0.68611519297018
  H          -5.63023768361086      1.13361848044331     -0.98703799896179
  H          -4.16109863682534      1.50038081663703     -1.91524124465422
  H          -4.76565642818387     -0.16791688317451     -1.81454040773040
  H          -3.27393338229726      1.49208085874051      1.70968838986841
  H          -3.20241325599484      2.50724788290892      0.25269523090916
  H          -4.76547619138210      2.08506452314010      0.98577970920315
  H           1.42916365445187      3.33892790086586      1.13289004709497
  H           2.36919037500532      4.35822220131741      0.01557860442878
  H           0.97681298390377      3.42734601880850     -0.58937263541509
