51
Coordinates from ORCA-job 185617 E -1713.672245119264
  O          -2.71521907885474     -1.00742607864200     -0.53698130802301
  O          -2.55674888171532      1.22883751964576     -0.07415163301652
  O          -6.59859774156869     -1.16181754445193      0.78145761310893
  O          -4.94632110583777      1.10346848014791      1.45388194719759
  O          -5.14238977682536     -3.54742282985719      0.39375145158797
  O          -3.14237371953483     -4.51523232504294     -1.08490410140264
  O          -1.55035997395129     -3.09584214411742     -1.70688388276081
  O           2.09824147236397      0.21932791850176     -0.18286904353502
  O          -2.06757698118660      3.55297025720191      1.16921494633591
  O           0.48737582235792      4.32519340536220      1.70644120347158
  O           3.00314845598051      3.76161778213426      1.60730455043364
  O           6.98126638928755     -3.41469782941939     -1.67271359902609
  C          -5.18104235110680     -1.17279738511731      0.84967965202834
  C          -4.56805377296454      0.16205925450012      0.46767420653634
  C          -4.70200558348359     -2.27435782308764     -0.08108241211087
  C          -3.05512190496085      0.01089321159742      0.38451626029696
  C          -3.16809092984476     -2.27837764674224     -0.12910662142693
  C          -2.53852008475484     -3.31876187801194     -1.07088950999668
  C          -1.24572845350946      1.52721051103157      0.20539584033351
  C          -0.20623024329864      0.67095388015387     -0.14015540864904
  C          -1.01760281415934      2.75623049069055      0.82666560044328
  C           1.08464384028799      1.07040085252698      0.15683733189335
  C           1.36065297920603      2.29298940166494      0.77148861326112
  C           0.29042509878939      3.13924824601982      1.10311308771628
  C           2.73253649612113      2.67586114641554      1.05500231528903
  C           3.38740652850239      0.54637513398047      0.05701967958994
  C           3.72603529182837      1.72342633351036      0.64748797784866
  C           4.31439273622019     -0.49251592810180     -0.39290967017593
  C           5.67863306205520     -0.43892401885108     -0.07625334816921
  C           3.85598743021569     -1.57153282357349     -1.15658385469081
  C           6.55289293766141     -1.41542837025762     -0.50760281939794
  C           4.72633479849453     -2.55438249970206     -1.59452650001065
  C           6.07950641184898     -2.48090434195190     -1.27339757566612
  H          -6.91714864650477     -0.43198757466787      1.32686475501826
  H          -4.49987900966568      1.93912255827084      1.25945101862802
  H          -6.10098037576824     -3.50991812089557      0.50684904619005
  H          -3.95902566645784     -4.49548718069154     -0.54398611894429
  H          -1.70041247766058      4.34650080059822      1.58557766579598
  H           1.47945318156487      4.40764867242214      1.81949084259227
  H           6.53954149757875     -4.09907777715813     -2.18918423959997
  H          -4.85742866164120     -1.42090655921255      1.86997751268187
  H          -4.92466187000972      0.46144895808566     -0.52520492697446
  H          -5.09222736289685     -2.09055630081761     -1.08798748555861
  H          -2.62894689689916     -0.22336965627729      1.37129581589976
  H          -2.79765150097243     -2.51913561465945      0.88076103589456
  H          -0.40459769719511     -0.26470008117193     -0.64089188059103
  H           4.76092350011966      1.97566524269270      0.81428095492137
  H           6.06499676397247      0.37006061219629      0.52714384083171
  H           2.80932193476308     -1.63991938101564     -1.41264449001382
  H           7.60416552415910     -1.37393000926166     -0.25786635359706
  H           4.35238240984985     -3.38106394659410     -2.18788698248877
