53
Coordinates from ORCA-job 185766 E -1714.854086452331
  O          -3.07403433874980     -0.77364171129506     -0.85101665035223
  O          -3.01519242679298      1.22828031826962      0.25754768883420
  O          -6.59065847890910     -1.86159173885020      0.97225299404904
  O          -5.01940423541730     -3.81323866869555     -0.37199172138391
  O          -5.07721721832175      0.34358213569690      1.99705060207992
  O          -1.52467626775063     -2.48958799936375     -2.38831763715944
  O           1.69292764331996      0.45175025459055      0.04401568592470
  O          -2.61084165123594      3.77732707457198      0.88295080366287
  O          -0.09463027052863      4.78246480185267      1.07696470865115
  O           2.44996251816221      4.35145754777119      0.94428534746438
  O           4.05027071871420     -3.49411709515794     -1.63364631903872
  O           6.63862186450423     -3.20926515289626     -0.98555017152568
  C          -5.19151716085445     -1.69435977046299      0.79417843372691
  C          -4.80705830031629     -2.41722241024734     -0.48877676934933
  C          -4.79632869052420     -0.22934432117098      0.73128320063623
  C          -3.32975247604093     -2.18314750281062     -0.79595096933914
  C          -3.31763365517803     -0.13113737116648      0.37960014776387
  C          -2.89534729641776     -2.74677950271041     -2.13497583818644
  C          -1.71500001051329      1.62844991469196      0.34655234829643
  C          -0.63104192143286      0.77949966470817      0.13646965447685
  C          -1.53122007076495      2.97932328253359      0.66381170284421
  C           0.64461236041807      1.30418116894577      0.25320958509931
  C           0.86995799936289      2.64478296605184      0.56385090173611
  C          -0.24119091352624      3.48144066800478      0.76629954552147
  C           2.22257369474415      3.15663672228236      0.66569468086684
  C           2.96744266258662      0.89652876910103      0.12334430387118
  C           3.25650347512499      2.19162154443605      0.41161286872711
  C           3.94665492679114     -0.16043168156085     -0.14386906474512
  C           3.54358533082772     -1.35165315022034     -0.75892297298950
  C           5.28902233006030      0.00422145518307      0.20602231162893
  C           4.46077026567299     -2.35000172920267     -1.02985873607555
  C           6.20990254423420     -0.99608248242304     -0.06263408481832
  C           5.80410371979003     -2.16849571379016     -0.68067667347693
  H          -6.84808501851384     -1.37065079159280      1.76211148659028
  H          -5.91479626703041     -3.93957933455647     -0.03390233684464
  H          -4.86019399508505      1.28339667962392      1.95586476097793
  H          -1.40813703476940     -1.53192494238747     -2.38816793772862
  H          -2.27442177360386      4.66278262440174      1.08410391827804
  H           0.89281301410477      4.94376391716220      1.10558609386959
  H           4.81402354525608     -4.07500649752486     -1.74948165297296
  H           7.54256531461892     -3.00577419566403     -0.72217528075219
  H          -4.65116321374623     -2.16218469066358      1.62877585814036
  H          -5.40710094528168     -2.00362072471183     -1.31038905937430
  H          -5.36216514132188      0.27156658093016     -0.06250214567159
  H          -2.71866643268950     -2.63393529125833     -0.00261546242069
  H          -2.70097869284665     -0.58025708880310      1.17168834616367
  H          -3.53001944604775     -2.32357909986156     -2.92364612143730
  H          -3.02644782925436     -3.82719247820581     -2.12933824203697
  H          -0.76883520189182     -0.25276321832901     -0.14197371069622
  H           4.28003571551430      2.52992177170982      0.43765566889034
  H           2.51299874474233     -1.51084274172872     -1.03879918408275
  H           5.61960571691955      0.90063673163495      0.70899814391193
  H           7.24927726988792     -0.86803349684210      0.21740094977471
