28
Coordinates from ORCA-job 185740 E -765.317607879177
  O          -0.42136982430817     -1.90133908857289     -0.25042161769074
  O          -2.17398057410555      1.81487536609397     -0.25994880337739
  O           3.91030518240778     -0.04231005878173      0.14674654093924
  O          -2.39007732316826     -2.91122793033268     -0.43585595638503
  C          -0.20224656310586      0.50913209118632     -0.15214183100814
  C           0.69409574133380      1.60818530967717     -0.04596604714836
  C           0.34313834786388     -0.78455666145098     -0.15374631734771
  C          -1.64507205265027      0.58028349669192     -0.26088405904233
  C           2.04771938461220      1.35770966507468      0.05007523629642
  C           1.70930207981082     -1.02596318870560     -0.05646329430014
  C           2.56518150508442      0.05614826134387      0.04613995569334
  C           0.25111422481037      3.04844993131553     -0.03174649180971
  C          -2.39638850981244     -0.54985215484246     -0.35685475080933
  C          -1.80968500370878     -1.85959862523862     -0.35580833072101
  C          -3.58669727866889      1.95823055629233     -0.36344323917019
  C           4.49309599501265     -1.33836072999891      0.14807665233817
  H           2.74744836927370      2.17822009534759      0.13174846378844
  H           2.04626072893406     -2.05016221254456     -0.06494190028916
  H          -0.42074106632293      3.25416133754401      0.80121501419701
  H           1.12131281609990      3.69742937407259      0.05700604547287
  H          -0.28643134671732      3.31252803182990     -0.94216151411781
  H          -3.46984063634493     -0.52940789297183     -0.43884887278810
  H          -3.77550931979736      3.02819916150120     -0.34117150742044
  H          -3.95382938776677      1.53694434257269     -1.30178874355372
  H          -4.09021791986267      1.47585420800712      0.47711140357464
  H           4.13844532349327     -1.92972165339281      0.99646711435574
  H           4.27564709876785     -1.86990523995218     -0.78220566667942
  H           5.56531700883548     -1.18320279176563      0.23598251700283
