56
Coordinates from ORCA-job 185904 E -1303.371883949427
  O          -3.96455178587596      2.50437763649706      1.46064267406596
  O          -0.17916009543557      0.93932160424825      1.83668714158359
  O           1.34310491152888     -2.38504612909597     -1.11919035945759
  N          -1.68414629869737      1.19924120024851      0.15846431680176
  N           0.82657310406909     -1.27088794744072      0.78042714939670
  C          -1.81759357461860      2.63765184567053      0.27086158550125
  C          -0.50818987412138     -0.92438712248545      0.35675461850833
  C          -1.07332743944336      3.33622131076528     -0.89263478677634
  C          -1.57650150411673     -1.93263990102047      0.84368018772734
  C          -0.77409505598760      0.49543387787465      0.86329676081348
  C          -3.28316214732091      3.05097662968519      0.34375632117222
  C           0.35287614439132      2.86271366089317     -0.99285225538292
  C          -2.90868510263825     -1.69322263113608      0.18596189323238
  C           1.34722399361302      3.42564364187661     -0.19546411620250
  C           0.68593360650505      1.77309230888762     -1.79680422101795
  C           1.70140533021265     -1.86728071871919     -0.06770417888747
  C          -3.92713356510266     -1.00270661805787      0.83878508631192
  C          -3.10953414037863     -2.08424358229183     -1.14001687638429
  C           3.13831163274759     -1.86216887452010      0.35515135086094
  C           2.63416454089309      2.90422540957911     -0.18851240836776
  C           1.96753358298374      1.23708281429621     -1.78408264115913
  C          -5.11667390047832     -0.70250069015609      0.18661797552564
  C          -4.29834658565532     -1.78955371884943     -1.79519575844235
  C           2.94586258644440      1.80132301735976     -0.97509007456405
  C          -5.30565690205436     -1.09470115520395     -1.13287745044979
  C           3.97990919542682     -2.82930397218989     -0.19251905319705
  C           3.66925025840664     -0.90739412089112      1.22297481831520
  C           5.32649113928857     -2.85688023047778      0.13847050857834
  C           5.01959223352633     -0.92913579313674      1.54614558740331
  C           5.84935610994645     -1.90658762598715      1.00956333020061
  H          -3.47640460082137      2.72770221023637      2.26133139428171
  H          -2.12497929172208      0.74335430949852     -0.62487831020199
  H           1.15576316378452     -0.75954435845740      1.58510459820634
  H          -1.32314163099053      2.90654668672765      1.20618070849400
  H          -0.51363174691139     -0.93251380959620     -0.73333520488951
  H          -1.60407807722784      3.13036581369046     -1.82704855865410
  H          -1.11117399805705      4.41603769879364     -0.73189343097168
  H          -1.20084584274647     -2.92572047466866      0.59328001024458
  H          -1.65804098730300     -1.87031012920187      1.93041686657730
  H          -3.82118005730195      2.68997712928649     -0.53627840631250
  H          -3.34184544298915      4.14664719139903      0.34056208258416
  H           1.10656336846512      4.26876930940871      0.44172455442161
  H          -0.07154577016552      1.32483396392544     -2.42888833384308
  H          -3.77712526174283     -0.66667888183578      1.85667855556511
  H          -2.32394950179742     -2.62077346657265     -1.65980324415241
  H           3.39200453150299      3.35220549032807      0.44177167569560
  H           2.19447113496766      0.36981324129293     -2.39017437267632
  H          -5.88585424945735     -0.14733764454781      0.70707203650338
  H          -4.43939503383061     -2.10363841729691     -2.82176149946936
  H           3.94174879991189      1.37915393539324     -0.95370585037399
  H          -6.23176200553697     -0.86199455302058     -1.64292875859467
  H           3.55704085511009     -3.54762618434914     -0.88130092011915
  H           3.04732214297410     -0.11631771851185      1.62118240161091
  H           5.97073749788835     -3.61661070784453     -0.28528842957367
  H           5.42463321423347     -0.17767083444046      2.21172039231753
  H           6.90142039170471     -1.92389092585887      1.26444491762041
