29
Coordinates from ORCA-job 18591 E -354.930850588982
  C          -1.52053455260295      0.53643280059548     -0.17905298577161
  C          -0.26067952119097     -0.23770311196884      0.20233501207351
  C          -2.84100709907742     -0.10443123577493      0.26639752081597
  C           1.02705411219284      0.49291787592162     -0.17158657464498
  C           2.29271615082713     -0.27521174103864      0.19993305283638
  C           3.58156227473027      0.45418744007685     -0.17286537457973
  C          -3.07693120419852     -1.46633474329633     -0.38975124638750
  C          -4.01412351562962      0.83578088297409     -0.01509939572283
  C           4.84052483278382     -0.32252936917150      0.20365349769278
  H          -1.45841023294637      1.54107780410446      0.25370600880884
  H          -1.54523589455218      0.67690109882634     -1.26686596339619
  H          -0.26726628529122     -0.42844427362388      1.28194093191113
  H          -0.26295949293014     -1.21950224235720     -0.28024146155243
  H          -2.78487289849454     -0.25758135042215      1.35151039912074
  H           1.02876744841982      0.69283117794260     -1.24929188030100
  H           1.04219374712290      1.47354978020560      0.31767524940326
  H           2.29107333873868     -0.47651867550448      1.27754790297028
  H           2.27866324000230     -1.25554757089975     -0.29046209082499
  H           3.58259241781747      0.65419106370543     -1.24965972813067
  H           3.59489940165230      1.43348187761653      0.31734142820769
  H          -2.29543171269299     -2.18396658306750     -0.13728779264273
  H          -4.03154982854089     -1.89181661079684     -0.07256570285492
  H          -3.10262576688858     -1.36826367473406     -1.47933051382852
  H          -3.87739179333408      1.80059497517519      0.47849570248589
  H          -4.11105372426990      1.02195516751541     -1.08875404129444
  H          -4.95722990056738      0.40937996769329      0.33387844346157
  H           4.88054856770548     -0.50757569164516      1.28016217337406
  H           4.86799745855385     -1.29315374709119     -0.29819735133562
  H           5.74556343266088      0.22138970903956     -0.07424321989396
