25
Coordinates from ORCA-job 18597 E -464.650784425857
  O           3.54393358951838      0.26079284786493     -0.02941693020570
  C          -2.14296079762380      0.00104479999104     -0.13729876368319
  C          -0.62623212864289      0.06863104102404     -0.14513532574298
  C           0.15417840542619     -1.08163803422619      0.07330146393156
  C          -2.80447781943671      0.93614028147824     -1.15374127790940
  C          -2.68736113647553      0.26678786423361      1.27467164806375
  C           0.03133170143200      1.28321251789688     -0.31716908611553
  C           1.54125398007492     -0.97832405626059      0.10405468552892
  C          -0.47340493758380     -2.43733159828213      0.27316392003138
  C           1.41594115791157      1.38651043911568     -0.28356201656576
  C           2.17627609342306      0.24486128886222     -0.07246268052334
  H           3.85676872762301      1.16236380887663     -0.16307052957997
  H          -2.43020946304677     -1.01595913999825     -0.41268395206501
  H          -3.88098647225185      0.75587012891790     -1.18525314553631
  H          -2.66129533575624      1.98657183800930     -0.89262687596578
  H          -2.40242479913398      0.78034618942763     -2.15620684013822
  H          -2.25400134253073     -0.41898807883182      2.00448009448484
  H          -2.44170516983893      1.28349583355183      1.59032583032600
  H          -3.77396964372286      0.15463865188232      1.30345319980815
  H          -0.54469224191028      2.18363569512200     -0.48415247148004
  H           2.15168301273543     -1.85738099954854      0.26757756039907
  H          -1.17195944243259     -2.44257810800273      1.11256512702660
  H          -1.03287235530549     -2.75519694621525     -0.61034970796058
  H           0.29039200590090     -3.18869548373123      0.47022027178166
  H           1.89654541164702      2.34873721884248     -0.42353219791011
