14
Coordinates from ORCA-job 18635 E -630.581637132094
  S          -1.92959806622158     -0.66895912358550     -0.13770239103455
  O           2.40961908734027      0.90405444201580      0.21224013261481
  C          -0.32223143043698      0.16874628103539      0.01638076193121
  C           0.79376337479942     -0.85975810935073     -0.04512366061393
  C           2.17233762182849     -0.26801124654817      0.07635983892684
  C          -3.02173293762482      0.77310605150840     -0.03460563413287
  H          -0.20986489826172      0.89528069284585     -0.78944450264159
  H          -0.28214484057525      0.71222329538349      0.96126587591546
  H           0.68848678584914     -1.61109077088572      0.74739697321068
  H           0.76192611015805     -1.42813494189445     -0.98293490052435
  H           2.99832979837879     -1.00950611159609      0.03165035571471
  H          -2.90303024429654      1.28575877227943      0.92031103800980
  H          -2.82978832890590      1.46801835916134     -0.85254287493927
  H          -4.04402703203136      0.40613040963096     -0.11458701243696
