36
Coordinates from ORCA-job 188316 E -1032.216022977541
  O           0.41371386375892      0.27850341567272      0.04883857079991
  O          -1.35607443383949      2.25299981662640      0.00912508622585
  O          -4.11349108943397      1.62070589177536     -0.13736488879622
  O          -3.07479399730106     -3.00594849725802     -0.06496455412663
  O          -0.44158141055084     -3.69450690423567      0.04689738335063
  C          -1.27579906029543     -1.45127800706451      0.00864659389863
  C          -0.89093834756550     -0.10366118088668      0.02265920254959
  C          -1.80123915929740      0.95643257623924     -0.01114115188987
  C           1.40682373968854     -0.64665691671276      0.09353787981112
  C          -2.66176891112640     -1.71874033309461     -0.04608881569759
  C          -0.22570878626737     -2.49172722861733      0.05100117646520
  C          -3.15833678548544      0.65186346772092     -0.05228864574409
  C           1.13228875027378     -1.96376137126916      0.10608313311735
  C          -3.57629277576469     -0.67672313657570     -0.07047315724394
  C           2.73614424855331     -0.02370475720424      0.13931471940651
  C           3.88798111075095     -0.76877226201872     -0.13297783150617
  C           2.86836691911577      1.33075566879677      0.46223950854114
  C           5.13913886017332     -0.17704030884798     -0.07243352208325
  C           4.12382506571079      1.91875701666427      0.52259267127446
  C           5.26284853993454      1.16887516586927      0.25757224217802
  C          -1.05992376523793      2.78627534484515     -1.28563820033136
  C          -4.19288656657241      2.53556576090650      0.96387401131683
  H          -4.03847951621609     -3.02510629787521     -0.10565331786310
  H           1.92755598663397     -2.68995002048238      0.16980878408414
  H          -4.64047383484540     -0.87614091392348     -0.10702713194628
  H           3.80511413269910     -1.81041234503415     -0.41001840225197
  H           1.98424327954928      1.91492061049403      0.67221920590149
  H           6.02063102601824     -0.76597406731046     -0.29017052406592
  H           4.21158897435606      2.96654381463372      0.77956989067933
  H           6.24124922590771      1.62939734644331      0.30332819184549
  H          -0.74360131215678      3.81591722546311     -1.12988910411548
  H          -0.25210526779888      2.22357202371285     -1.75962407941118
  H          -1.94794716442773      2.76531308478471     -1.92219751277424
  H          -3.26744957006460      3.09782705164430      1.07929610972543
  H          -5.01550783669769      3.20854705177849      0.73253625953794
  H          -4.41429613217916      1.99197721433992      1.88645921913820
