39
Coordinates from ORCA-job 189061 E -735.150497123909
  O           2.03946477113776      2.40562771721018      1.20330897910536
  O          -2.27981421278712     -1.21935256340649      1.62595609104807
  C           0.93549147975373      0.43129640541093      0.22386113507895
  C           2.18988318857522      1.33163243971397      0.27470267976054
  C           1.43527199445545     -0.83898665581939     -0.45235174808462
  C           3.29465352423467      0.32924076134845      0.68169351923672
  C           2.84086166430887     -1.05944899937994      0.17557690669502
  C          -0.30307845726842      1.05607802429496     -0.39321521594619
  C           0.53181560252879     -2.03305093043348     -0.37992359454959
  C           2.50992486873609      2.00978966108129     -1.05133535702617
  C          -1.60563138432517      0.40401393556161      0.02995352753514
  C          -0.70907088571085     -2.02625651964089      0.12129944273748
  C           1.12091248473782     -3.31278748080723     -0.90576613277091
  C          -1.54971216412991     -0.93492293412683      0.68763605605322
  C          -2.80012876723303      0.98169551512168     -0.20677467954094
  C          -2.92171931284835      2.29804254204613     -0.92445819701376
  C          -4.13582764051334      0.39210776669662      0.15215754210806
  H           1.81257391295010      2.03713648380405      2.06526883625958
  H           0.71256404196287      0.18215550622788      1.27161039732407
  H           1.57706752076591     -0.61847608618230     -1.51861314536105
  H           4.26719009988252      0.62733203711844      0.28982714574036
  H           3.37997280283296      0.32903421806209      1.77026526984321
  H           2.76662422287106     -1.76152305639440      1.00728923303573
  H           3.53807949717891     -1.48976189753725     -0.54258071117233
  H          -0.32922745075068      2.10379248922978     -0.08728785794892
  H          -0.20583573804434      1.05418472140162     -1.48402558916865
  H           3.41332306623152      2.60929868265751     -0.93567220691293
  H           2.68324958219103      1.28014039443684     -1.84262851261950
  H           1.70026071629944      2.67207588995755     -1.35654562811246
  H          -1.22644716795229     -2.97768696658169      0.20176513913536
  H           1.99330142308633     -3.62036713451766     -0.32384965342360
  H           0.39542615723638     -4.12469293133767     -0.88977042290360
  H           1.46486800618702     -3.17668284801386     -1.93603549909575
  H          -3.63603035039364      2.94218941810568     -0.40399205931923
  H          -1.98386482225869      2.83741094380334     -1.02391317157282
  H          -3.32566373818565      2.13883035487124     -1.93000770289633
  H          -4.52921170178946      0.88019173447238      1.04912434871994
  H          -4.85029839711164      0.58275538004866     -0.65349354036731
  H          -4.10013943684186     -0.67192801850380      0.36183037638984
