48
Coordinates from ORCA-job 193042 E -1226.533433504963
  O           0.53207451900373      2.09002267872072      2.20178150133398
  O          -0.53202312421649     -2.09041109982460      2.20108861186427
  O           6.14894752799882      1.18025622287905     -1.48402522976070
  O          -6.14878555254598     -1.17976812903350     -1.48466651714051
  O           7.08725686816896     -0.41221832754470     -0.10318101944690
  O          -7.08723883941612      0.41175374712769     -0.10287561008842
  C           0.75634705193434      0.14521631934564      0.70152897478830
  C          -0.75630085551792     -0.14513974322377      0.70149571545225
  C           1.47781886731531     -0.33728654320621     -0.57192902043317
  C          -1.47780067633210      0.33782538791231     -0.57177227594064
  C           1.05266892594442      1.62233241720130      0.95808949429530
  C          -1.05258375167874     -1.62233721534313      0.95751953186122
  C           2.97831030117908     -0.39945243836263     -0.42384922696066
  C          -2.97830112905869      0.39971118744171     -0.42366820578965
  C           3.79767294445499      0.51645594416495     -1.10363005145273
  C          -3.79755719194574     -0.51591618464724     -1.10393999864506
  C           3.55759193171133     -1.35679837877477      0.40657888713163
  C          -3.55768129006240      1.35649502215359      0.40735114791718
  C           5.15541279644097      0.42839920389483     -0.90747263585483
  C          -5.15530362163601     -0.42815728050420     -0.90768221606660
  C           4.94234558910942     -1.44088833189504      0.59482479988566
  C          -4.94243559827755      1.44029345204801      0.59569633356357
  C           5.71781557206098     -0.52660377021391     -0.07695013432568
  C          -5.71780257124655      0.52628714763570     -0.07657745122945
  C           7.34785648493148      0.80970174370653     -0.79692263885357
  C          -7.34758250711660     -0.81003252822058     -0.79693548949426
  H           1.00614850469186      1.64403190721412      2.91231016479611
  H          -1.00630911973182     -1.64484076625812      2.91173676217615
  H           1.17544298065497     -0.41479415344539      1.54378361521228
  H          -1.17539230238148      0.41460178913989      1.54392804321375
  H           1.10801519027145     -1.33128761977746     -0.83321404630873
  H           1.22328627165562      0.31554838469030     -1.41043753582046
  H          -1.10815742821528      1.33200949464690     -0.83258154346815
  H          -1.22316027403607     -0.31458117319303     -1.41057854285345
  H           0.58630288447741      2.24973733062141      0.19552205851932
  H           2.13196029353563      1.79554553435027      0.90535315125866
  H          -0.58614371401021     -2.24947448584067      0.19477607119901
  H          -2.13186375932947     -1.79557604245618      0.90466726431476
  H           3.37734127800833      1.26542864268135     -1.76140187426447
  H          -3.37713687021733     -1.26446025300546     -1.76214397765527
  H           2.91724302602382     -2.05932140584995      0.92555566090603
  H          -2.91739144647582      2.05878269698279      0.92671672622760
  H           5.38361788094390     -2.19381928370133      1.23282642910217
  H          -5.38378793674267      2.19278676337334      1.23415880449213
  H           8.14765468305328      0.65471916151572     -1.51975102106110
  H           7.60724763056150      1.59205012980251     -0.07309968829992
  H          -8.14775243108188     -0.65516719926337     -1.51936433057184
  H          -7.60627101285869     -1.59275995566539     -0.07326246772509
