44
Coordinates from ORCA-job 193679 E -1074.936125291995
  O           0.29713001956846     -0.21443762854189     -0.30349091469215
  O           1.35681156661816     -3.99768830255008      0.84770223167432
  O           4.75452183569310      1.14454154429623     -0.77608652227326
  O          -5.80517558575565      1.01759217002157      0.32800395329737
  C          -0.67564380786776     -1.27813439123731     -0.34772525800556
  C          -0.36115316195889     -2.33860386265085      0.69979092525662
  C           1.60536494398903     -0.55474755342368     -0.23654935612409
  C           2.02995099524072     -1.84266571303706      0.12927902626054
  C           1.05856853762419     -2.85277519406299      0.56462372571593
  C           2.51232033756998      0.46392180612702     -0.54911238189123
  C          -2.02761280250721     -0.64941204952121     -0.16904410357970
  C           2.01807184443311      1.83680896175143     -0.93736707634373
  C           3.40179002554772     -2.11230568265400      0.15739783683281
  C           3.86789880552608      0.15158049986388     -0.48478220145851
  C           4.31696779954721     -1.13237689432817     -0.14415290522942
  C          -3.05862467907889     -0.89807326263386     -1.06937927743079
  C          -2.27946257803751      0.18422399232704      0.91774595693613
  C           1.45752080498571      2.59662383724846      0.23463246197600
  C          -4.31749458507836     -0.34242849812889     -0.89359480113271
  C          -3.52944064045711      0.75308741381728      1.10244253931908
  C           0.24121379830320      3.13056515372938      0.35264948564549
  C          -4.55525206835132      0.48704410246750      0.19688578134586
  C          -0.16090665847975      3.85740063440928      1.60649396766343
  C          -0.82496706482938      3.08147685903848     -0.70408341336067
  H           5.65221349257783      0.79871677745649     -0.71772673401395
  H          -5.84261810305475      1.57019528464573      1.11684318671198
  H          -0.61298504548667     -1.73238616819107     -1.34360784763163
  H          -0.46765760824137     -1.90574121650712      1.70019034473130
  H          -1.05957369615715     -3.17111384783284      0.62429078145966
  H           2.85194208210767      2.39453220273392     -1.36585896734023
  H           1.26656219425368      1.72967148595068     -1.71843476100405
  H           3.71681920132817     -3.10679256987082      0.44311086236815
  H           5.38081162729468     -1.33838593560721     -0.11121675769664
  H          -2.87724754404361     -1.53523670912387     -1.92682441131159
  H          -1.48183939210248      0.41472831922014      1.61179898303849
  H           2.14311973770972      2.70192109437624      1.07164541722409
  H          -5.11896526171658     -0.53508874545943     -1.59373454229897
  H          -3.70938716868533      1.40866158409570      1.94753680276860
  H          -1.03144367217380      3.37890942326123      2.06827470528848
  H           0.64608105662729      3.88066522176895      2.33911305358574
  H          -0.45472008491810      4.88898135928402      1.38633486679136
  H          -1.76032242237323      2.70299873922740     -0.28477881336810
  H          -1.03141969978469      4.08808536333869     -1.08287200181488
  H          -0.56416037540607      2.44830039490560     -1.54806784788956
