67
Coordinates from ORCA-job 193876 E -1836.106352980125
  O           3.44667477870100      1.05410985205229     -0.12775961130800
  O           2.67837497874331     -0.65847028682281     -1.39092995863904
  O           7.22793474227054     -0.54877174148306     -0.08670030534264
  O           6.62651459967483      1.61367414079561      1.64905896149923
  O           5.00224835315382     -2.15868523612689     -0.76919335682635
  O          -1.95830265134738     -0.38939802006581     -0.63892023381715
  O           2.66596357601047      3.30267116010997      1.50401222696845
  O          -4.51990207085132     -2.81514294169695      0.29473753246891
  O           0.23968791742292     -4.64682931610312     -0.54411088650486
  O          -2.47849221594124     -4.36810106075262     -0.24950517580853
  O          -6.93929466114145      2.95555375572808      1.11683692191808
  C           5.91817408096085     -0.22259224181718      0.35570951681908
  C           5.74194684272864      1.26881133055712      0.58248604854373
  C           4.94932216456057     -0.74509589361784     -0.69130173597954
  C           4.27512984878499      1.55676590528711      0.92051651981809
  C           3.52725983596605     -0.34509613051067     -0.32505191900412
  C           3.96971683352926      3.03931225894222      1.03736132626656
  C           1.47646462380256     -1.26156754333326     -1.08857870773567
  C           0.32650472629473     -0.49017754823736     -0.98804981648815
  C          -0.86474090993538     -1.17675831432466     -0.72929271693159
  C          -3.26839201843721     -0.97769132303714     -0.63433563053459
  C          -0.92144939007805     -2.57597230323894     -0.56674389734094
  C          -3.26362216291846     -2.20176508312651      0.28100101127364
  C          -2.19846354171580     -3.18429437733336     -0.20408818087320
  C           1.47097304581500     -2.64609017031266     -0.95737702973875
  C           0.33325740486565      1.01114539905783     -1.10502201835622
  C           0.28086774804446     -3.30516623873357     -0.70076316481824
  C          -4.23945668933874      0.08326459183710     -0.20452202476713
  C           0.14969781109416      1.66848441513585      0.23975980168371
  C          -3.88086840623542      1.03605571096290      0.74828728766878
  C          -5.53168849818105      0.10074181214743     -0.71467532233001
  C          -0.58344284986432      2.74622199336174      0.53161291807381
  C          -4.78904123668127      1.98894223955679      1.17857335074909
  C          -6.45295026395763      1.04637982021430     -0.28601988502199
  C          -6.08185906030203      1.99486917809987      0.66210170378492
  C          -1.37153871779829      3.53384871709733     -0.47419806881074
  C          -0.68425861113833      3.25226038689920      1.94400675357594
  H           7.84727892529400     -0.20824867143443      0.57046038460894
  H           6.83355732924703      2.55222686944988      1.60763477632973
  H           5.93238435004600     -2.40280629378365     -0.85324134965140
  H           2.02112294463674      2.93383032509906      0.88139420738686
  H          -4.33793295335595     -3.76408807029461      0.17044799504158
  H           1.13547824160251     -4.99828759653703     -0.61509581308869
  H          -7.79925890550487      2.84638708716587      0.69556543572383
  H           5.70970680954978     -0.73271454019217      1.30678184364807
  H           6.01534813492965      1.80428779196322     -0.33390239083416
  H           5.18310119944045     -0.29082621824279     -1.66178087505705
  H           4.02294073943727      1.06440803759868      1.86962259381512
  H           3.20866244956730     -0.87580053207278      0.58236486755380
  H           4.15130056874405      3.50871089226135      0.06090292666827
  H           4.64909957720762      3.48623604587840      1.76559905214608
  H          -3.50307900922827     -1.31269617809537     -1.65156212264064
  H          -2.97466646937065     -1.86854139064035      1.29028082792205
  H           2.40595756828468     -3.18249045666209     -1.06153285788753
  H           1.28631593666940      1.31316875980885     -1.53972338891131
  H          -0.45631175933901      1.31896853115739     -1.78927626477038
  H           0.66249917836979      1.17077373795537      1.05859910510886
  H          -2.87291853437900      1.04320787943326      1.13934980042099
  H          -5.82962229749585     -0.63988464487425     -1.44546756857896
  H          -4.51357258674619      2.73433302506793      1.91268113799887
  H          -7.45885505895595      1.04805711356552     -0.69121100663247
  H          -2.42995537464184      3.54622944039252     -0.19895457278087
  H          -1.03597709102456      4.57538377947395     -0.48761282037078
  H          -1.29141072312538      3.14079948205713     -1.48485393056394
  H          -1.72692058992019      3.24749298111948      2.27807192195800
  H          -0.09610103532078      2.64969563054643      2.63523891673547
  H          -0.33582252117828      4.28657028566684      2.01572093456707
