15
Coordinates from ORCA-job 19462 E -308.613721740203
  O          -0.72673172617460      1.11278107473667      0.01184713323092
  C           1.15994078844414     -0.09667198051263     -0.01083330176286
  C          -1.08740341370608     -0.20259663411729      0.01250625913389
  C           0.02572676719256     -0.97865302542340     -0.00102924695397
  C           0.63970314243219      1.15405502666499     -0.00238421245801
  C           2.60215669612232     -0.48250905451403     -0.02683182197659
  C          -2.53963046819753     -0.49871346919303      0.02699007066982
  H           0.04543962059217     -2.05653449163428     -0.00377552729302
  H           1.08359315597520      2.13422924934500     -0.00469178755529
  H           2.86193603163019     -1.08261948425402      0.84892353318429
  H           2.84369116663956     -1.07812302662195     -0.91083563156262
  H           3.24495063472096      0.39850509024918     -0.03124090215735
  H          -3.02102910940365     -0.07994735675522      0.91451809266774
  H          -3.03933183985582     -0.07717644213939     -0.84903601809646
  H          -2.69711444641161     -1.57652947583060      0.02691436092950
