66
Coordinates from ORCA-job 196831 E -1425.236167094235
  O          -0.51407852889666      0.80953461145024     -2.19985874328625
  O          -2.53466308640261      0.97960372389449      2.15770263776487
  O           3.16004856844567     -0.99745606629123     -0.01182939176904
  O          -5.16648790461779      0.01377099536433     -1.64096620489118
  O           6.20013906763310      2.39589919541062      1.38000255126025
  C           1.00923110139089      0.78261617327216     -0.28052762654120
  C          -0.12212491891821      1.20109116982893      0.66234721826057
  C          -1.46314676816345      0.95303990278742      0.02294426077989
  C           0.70526924744739      1.33069889483429     -1.67280099294525
  C           2.37634269153184      1.22435442807619      0.18005946795436
  C          -1.57976427887136      0.75268245861268     -1.34895130380645
  C          -2.63364483757757      0.83760300803070      0.78509301013501
  C          -3.87311465435636      0.52704135963892      0.24245909442947
  C           3.43035656160595      0.30771704428683      0.28455973267356
  C          -2.80478698527372      0.44297680046763     -1.93909661153158
  C           2.65328577995686      2.55316828103420      0.48063857677752
  C          -3.93414032816431      0.32368997468353     -1.14581139490835
  C           4.71402458091099      0.68486377288986      0.70188803034686
  C          -5.09988487354578      0.33381853215249      1.10275903940793
  C           3.91729105815332      2.96837251090114      0.87013729732808
  C           4.93918522048854      2.03309480777838      0.98104801644879
  C           5.80915461940917     -0.34537872785141      0.87660436238805
  C          -5.26742093545833     -1.10976687270858      1.49402785530786
  C           6.10330117254891     -1.11299337784843     -0.38512627067903
  C          -2.60012080848153      2.32544278446726      2.61426089349978
  C          -6.23834887858297     -1.95246641909975      1.13945406405256
  C          -5.28913385570539     -0.25829094035347     -3.02362065676290
  C           6.12670036923011     -2.43943301240801     -0.56205441733945
  C          -6.22795342939439     -3.37996225197456      1.61444467051919
  C          -7.40288132363118     -1.59886965833864      0.25866497616456
  C           6.45016139002875     -3.02898228409619     -1.90726020828450
  C           5.86207089039315     -3.45406002655411      0.51555381843068
  H           3.98902725623681     -1.45451653144185     -0.22707729525213
  H           6.21475679505451      3.34413955881633      1.54838945046307
  H           1.00636107276001     -0.30410813630844     -0.35964109612231
  H          -0.05412750949155      0.65222772394588      1.60269171394338
  H          -0.00900042487039      2.25878133387590      0.91983803717250
  H           1.47702742433213      1.04525827625888     -2.38589085417967
  H           0.64488827342110      2.42571070699040     -1.64493845131282
  H          -2.82980243675257      0.29563627406323     -3.00745003792444
  H           1.86498236121395      3.29114655996614      0.40457393931135
  H          -4.99277588170230      0.92917750862201      2.01051918370942
  H          -5.97528486724489      0.70221045904868      0.57248073828351
  H           4.10841368773617      4.01170960710080      1.09390662356644
  H           6.71475607576334      0.17052007740960      1.19630960645247
  H           5.53631155448439     -1.02299843270401      1.68857946294282
  H          -4.46797819316097     -1.49120149052179      2.12357608597822
  H           6.31610234880106     -0.48754104204951     -1.24825993239446
  H          -2.50957566215188      2.29353864625149      3.69885547521880
  H          -1.78713981322095      2.92885829098590      2.20078849401075
  H          -3.55452481025853      2.78628754323282      2.34048533021933
  H          -5.02404151125235      0.61389314217065     -3.62902674933545
  H          -4.66255260400808     -1.10473160103584     -3.31980657684734
  H          -6.33517458943964     -0.50727263237214     -3.18861424898511
  H          -5.36924716600057     -3.58651321828760      2.25348818635010
  H          -7.13840470808948     -3.61358542282338      2.17659585177817
  H          -6.19900800754609     -4.07289516982984      0.76666185969927
  H          -8.34707047627102     -1.73805964925744      0.79572566074344
  H          -7.36237744769900     -0.57832195425626     -0.11182883504212
  H          -7.43641500754015     -2.26712331759427     -0.60803523561964
  H           7.33839680151601     -3.66558102248179     -1.84621877957358
  H           5.63340809891073     -3.66599480626603     -2.26050262727271
  H           6.63233786849100     -2.25724171973670     -2.65469593430594
  H           5.56898547733319     -3.01220404208792      1.46505789801741
  H           5.07448039615580     -4.14681922406233      0.20433909362854
  H           6.75700170135717     -4.05946708795943      0.68882321149405
