92
Coordinates from ORCA-job 197044 E -2300.871064710691
  O          -4.44095948770341      1.16851184816742      1.73216708265240
  O           4.66227878673367      1.61252153895463      1.28049315076323
  O          -0.15450536440424     -0.72235709873087      1.56066729739641
  O           1.27868395896309      0.59969934865598     -1.83039415270083
  O          -3.92629327405724     -3.40108568149107      0.67496519198354
  O           4.06535432941491     -2.81583242220920     -0.19556121826805
  O           1.18820801037288      1.76908816861176      1.99083529015188
  O           0.87937707343933      4.05282390852662     -2.11423898860813
  O          -3.03306256792376      3.16558098860140      0.58729194023342
  O           0.22787629877350     -3.02640441075749      0.98101746499252
  O           0.77567142777880     -1.65306770429737     -2.50196249113960
  O          -3.26351473421657      4.63307306786151     -1.35856692823822
  C          -4.30519409771537     -1.12520919086227      1.17979498421845
  C           4.32859596670882     -0.66485840168119      0.74809633016995
  C          -2.26136105958117      0.24484439944026      1.76293171446150
  C           2.92565546724436      1.16463064643870     -0.28457254187147
  C          -3.60172418663697      0.13867103848387      1.57600958397218
  C           3.93424850759366      0.76359526605356      0.52639036268408
  C          -1.59313808427927      1.50272296256711      2.29474990309200
  C           2.49124879524351      2.60961815377269     -0.45037092858317
  C          -3.38496387599367     -2.34304796141309      0.96991725054322
  C           3.64515209760601     -1.66932346479991     -0.20534810188069
  C          -0.94412535445156      2.34045764494383      1.21827084356446
  C           1.03226588351632      2.86183983092013     -0.13309434711609
  C          -1.95279023894669     -2.17020343546951      1.09874469644457
  C           2.53204151012386     -1.21745651086018     -1.01536026400882
  C          -1.44768295950793     -0.90076217079560      1.46417669235025
  C           2.22904938605665      0.15283558197927     -1.05556141124743
  C          -5.32631958784038     -1.49051660217260      2.27823650208031
  C          -5.03649966454199     -0.88316830310793     -0.15999156203122
  C           5.85431196862239     -0.82015876220926      0.62195687186787
  C           3.86878362954747     -1.06436681704485      2.17449044170950
  C           0.43506104823748      2.32764003485892      1.01770243765304
  C           0.23287008578984      3.56289279653796     -1.02213821807558
  C          -1.71230147787161      3.08419794937671      0.33721675355188
  C          -1.15702447657598      3.75977839937459     -0.79321375993163
  C          -1.00734082634610     -3.24773903074850      0.89643764737504
  C           1.72166808776322     -2.11711723497312     -1.82363049179636
  C          -1.45027651602532     -4.65339094296539      0.59654495086534
  C           1.98214932474736     -3.59340123765526     -1.87450790293868
  C          -2.04462057210019      4.59002705281048     -1.59857257138101
  C          -1.54810893919492      5.46468296472697     -2.73966733175737
  C          -0.33135489232556     -5.68509193680856      0.66161849447748
  C           0.96113026832727     -4.37581860962549     -2.69067397767495
  C          -2.58786143964637      6.45378655305525     -3.25951670783155
  C          -0.81608910520483     -7.07086445431665      0.24621182808766
  C           1.34590199314471     -5.84745978023209     -2.81902599744517
  C          -2.03972845100170      7.30137430009726     -4.40391405748617
  H          -3.96713717651791      2.00871173926882      1.56005901403683
  H           4.38620876695916      2.52592920656738      1.12810410953309
  H           0.26161773012023     -1.65422465407934      1.32432306320428
  H           0.86943992680011     -0.26424194079422     -2.26986586396134
  H           1.98311220944217      1.36954753084099      1.60916403064859
  H           0.25960289090606      4.31941146984191     -2.79796534831875
  H          -3.42180143682975      3.74533093752206     -0.14522312629705
  H          -2.32816675999016      2.09280889138062      2.84329572994754
  H          -0.82774846262267      1.20636835453818      3.00707889325481
  H           3.11224294065948      3.27628342370228      0.15935102451614
  H           2.66882158673885      2.91393447436604     -1.47925662040760
  H          -6.05759321820316     -0.69243382201784      2.39475714869058
  H          -5.83032879859102     -2.41168580590795      1.99277113002632
  H          -4.82765181889397     -1.64910254062640      3.23632868556271
  H          -5.76734081988529     -0.08408225876885     -0.05072201034327
  H          -4.32952204454260     -0.60482738247401     -0.94417987997668
  H          -5.53737730809628     -1.80287686339065     -0.45590432551360
  H           6.36435916775447     -0.23712343887741      1.38612348090999
  H           6.10621821150644     -1.87162473204584      0.73494686742778
  H           6.19988043929866     -0.48684419195950     -0.35838917921338
  H           4.34457191012229     -0.42564369877238      2.91776555949955
  H           2.78530381354954     -0.98298176060926      2.27946083801405
  H           4.15213742456819     -2.10063667593001      2.35120754799907
  H          -2.27227312919074     -4.91221346905775      1.26545828958836
  H          -1.92321360459378     -4.64426331661631     -0.39196119857144
  H           2.99460015008505     -3.73613081926677     -2.26560076710801
  H           2.04538498560547     -3.95887898613937     -0.84794433962304
  H          -0.65157189013164      6.00371175635304     -2.42056850161798
  H          -1.25603352703392      4.80843300429472     -3.57433598922595
  H           0.49603834092332     -5.37488762011459      0.02538983830812
  H           0.07201435204245     -5.71731827961733      1.67709713405304
  H          -0.02268638097127     -4.28355634505287     -2.22449779237863
  H           0.86237299127219     -3.92972394880671     -3.68206068206647
  H          -3.47562781707634      5.90858800877074     -3.58067841487015
  H          -2.90925606227050      7.09392573190373     -2.43539852635339
  H          -1.63511546767813     -7.41410539474577      0.88310639810831
  H          -1.18042775220579     -7.06650423767460     -0.78415794548991
  H          -0.01206428599178     -7.80644648549923      0.31079457492369
  H           1.44665228119041     -6.32273349432925     -1.84121003553054
  H           0.59414142232361     -6.40352286021170     -3.38216314356402
  H           2.30152757831162     -5.95930304952775     -3.33753296338041
  H          -1.74095532207792      6.67976004993804     -5.25205367291042
  H          -2.79142449170432      8.00677766633677     -4.76074594661154
  H          -1.16543921673706      7.87807054769901     -4.09149584024914
