55
Coordinates from ORCA-job 197678 E -1269.036906753751
  O           0.27123610026829     -0.77455543303475     -0.27254590763786
  O           4.62064274104664      1.06906266383222     -0.45068515349600
  O           1.70117185562843     -4.34439039823889      1.12971778320371
  O          -5.95603623071791     -0.42104301906717     -0.50381079677206
  C          -0.51813051645164     -1.97404014582507     -0.42096684264755
  C          -0.19777687884428     -2.94995910426450      0.70446030822433
  C           4.10166578366767      2.43480379045788     -0.41032958246924
  C           1.60190741147118     -0.94097584958367     -0.08434813169381
  C           2.40878375799008      0.16980047801554     -0.35306235979242
  C           2.15701652649972     -2.15010578327430      0.36005942786629
  C           3.79131744873277      0.04281662099687     -0.17177255192524
  C          -1.96126507850609     -1.56405636572264     -0.47063564435233
  C           1.28619518823217     -3.26433099233505      0.75417483060563
  C           2.70058348773492      2.48180931882004     -0.96152164565561
  C           1.90075500691930      1.41844023753927     -0.89127195325885
  C           3.54924657060449     -2.24075665153681      0.49417057464831
  C           4.36744512537383     -1.16620172040905      0.22906667612153
  C           5.07006075186439      3.24053556135904     -1.26380375839962
  C           4.12302026340508      2.89640015772034      1.04848651192883
  C          -2.45181737545479     -0.59437372949118      0.40041020418883
  C          -2.83975490921320     -2.16482432443887     -1.36223880110180
  C          -3.78258121547091     -0.20219381845903      0.39840167296349
  C          -4.64848939961704     -0.82575422008832     -0.50642169295868
  C          -4.18112515801899     -1.80509023750056     -1.37459822951658
  C          -4.26619788282766      0.91112799057068      1.29882354690300
  C          -4.30504608354871      2.22622215741763      0.56343776720140
  C          -3.36754189749020      3.17531619470619      0.56365952096770
  C          -3.52783925508087      4.41740529470009     -0.26865065232224
  C          -2.08131574572041      3.10588595660310      1.33784585676356
  H          -6.45078553423573     -0.92705445013134     -1.15758558512899
  H          -0.23524847761808     -2.43024418121936     -1.37722020102740
  H          -0.48792906895113     -2.50515247263498      1.66246772149890
  H          -0.76049852810283     -3.87500540135917      0.58512192851954
  H           2.36318808103041      3.42154066895634     -1.38023910911359
  H           0.88037750035336      1.44820124085422     -1.24695437416913
  H           3.95835131178288     -3.18130948352551      0.83820073855336
  H           5.44124237088424     -1.22421659377076      0.33879463688106
  H           6.08380145062668      3.14565202245130     -0.87389668869386
  H           5.05562458331550      2.88518362230673     -2.29412475783161
  H           4.78979783890596      4.29486213533775     -1.25277358334016
  H           3.47642724944167      2.26229575713726      1.65590147968005
  H           5.13891613080608      2.85114454244125      1.44467762101208
  H           3.76086011658153      3.92315552848006      1.12302280704568
  H          -1.76820350207766     -0.10931223275038      1.08501793304563
  H          -2.48164056462643     -2.91561658399503     -2.05632103174244
  H          -4.86385021060228     -2.27603916355139     -2.07359901097129
  H          -5.26729787679677      0.67476177532179      1.66376762347940
  H          -3.61075294540569      0.96743426955439      2.16724094090700
  H          -5.17755524616245      2.37023456812908     -0.06608171254364
  H          -3.50799536887979      5.31471095886086      0.35838036305092
  H          -2.70264300197314      4.51680453204025     -0.98182536254895
  H          -4.46337649237854      4.41085798292176     -0.82793676885756
  H          -1.92208500770518      4.02819455361291      1.90431739714546
  H          -2.04304292871272      2.27096828592983      2.03404190673043
  H          -1.23081927197610      3.00616248913303      0.65519211083237
