28
Coordinates from ORCA-job 20111 E -466.052694657834
  O           0.60538965473699     -0.22535129591656      0.02236738734626
  O          -5.55183153690815      0.04617108467559     -0.01589938910239
  C          -1.77280045425280     -0.41433914544871      0.03381481179998
  C           2.99193609015482     -0.33286064986012      0.01091351995340
  C          -0.58777823498711      0.53144939851827      0.00614657600727
  C          -3.10951510208850      0.32392377843188      0.02260154901819
  C           1.77475671051556      0.57059738568438     -0.00823741987799
  C           4.30501046912427      0.44644490807810     -0.01901608263202
  C          -4.29860267064208     -0.62635599974828      0.05129193034369
  C           5.53124631132239     -0.46248058567481     -0.00152949273805
  H          -5.63167654638601      0.62123747375585      0.75296660803306
  H          -1.70624090413026     -1.08207050381756     -0.82995461208191
  H          -1.69534237418050     -1.04427534595124      0.92476322497856
  H           2.94975349226685     -0.95927812778716      0.90696630760442
  H           2.93979207063065     -1.00978511174219     -0.84705024367271
  H          -0.61711625014268      1.20705492476386      0.87473142539822
  H          -0.62266263978927      1.16139723140316     -0.89552200072029
  H          -3.16747353590946      0.99399312052709      0.88932321622738
  H          -3.18945547744057      0.95425681456064     -0.86797874096605
  H           1.77747111792228      1.19792483068319     -0.91252373688287
  H           1.78841268010504      1.25013787969863      0.85750891039791
  H           4.33267343102690      1.07886497558661     -0.91263568884666
  H           4.34368431561509      1.12751278512489      0.83769534913500
  H          -4.24719237156431     -1.26462617785140      0.94341697929593
  H          -4.27483477407922     -1.28359517293038     -0.82002684423249
  H           5.54640483483923     -1.08351469515255      0.89746476456521
  H           5.53534816600284     -1.13215324658115     -0.86500020664762
  H           6.45695352823800      0.11572546696995     -0.02322910170341
