33
Coordinates from ORCA-job 20136 E -507.329315739822
  C          -1.04175119337620     -0.02813389804409     -0.20179327847703
  C          -1.46883322867631      1.15148589088977     -1.11354703562106
  C          -1.76927273992635      0.05585055324236      1.15821914739606
  C          -1.42206481106550     -1.34111531782894     -0.93451049417950
  C           0.48139043482521      0.01357920621904     -0.01700020759260
  C          -1.18452902694574      2.54508674190151     -0.56099167459378
  C          -3.29519474939252      0.02326475963513      1.10161954652381
  C          -1.08745682972806     -2.62993497162040     -0.18932966239014
  C           1.31540181362182     -0.05027785230725     -1.13879295927666
  C           1.09906872756561      0.11314919138074      1.22916459791979
  C           2.69685319398271     -0.01649325963776     -1.02393401580050
  C           2.48531247266696      0.14753437455522      1.35290125424955
  C           3.29310725285680      0.08301442058240      0.22824453591990
  H          -0.96331116848221      1.04038002141716     -2.07523487622444
  H          -2.53536831857354      1.05339181547722     -1.32998624692423
  H          -1.42825276308530     -0.76477637871886      1.79215639386777
  H          -1.46065231230537      0.97062881336028      1.66765622068398
  H          -2.49089739611390     -1.31490850534290     -1.16005891321907
  H          -0.91832181165729     -1.34995608071212     -1.90352622068342
  H          -1.76732500610831      2.75420911563660      0.33763760666548
  H          -0.12920770593929      2.66303567023051     -0.30885727114597
  H          -1.43908215453351      3.30789759394396     -1.29920264898069
  H          -3.70653097367895      0.08749262143416      2.11073528647928
  H          -3.70383920315621      0.85826096229659      0.53062660156833
  H          -3.67091661403171     -0.89893691360316      0.65596351163789
  H          -1.66392919763389     -2.73009609164694      0.73185342447424
  H          -1.31190074259264     -3.49927283604033     -0.81022620582604
  H          -0.02904288571303     -2.67144281599612      0.07372551016820
  H           0.88175024258741     -0.12822599390336     -2.12681097559286
  H           0.50480755014244      0.16564768378920      2.12882023289993
  H           3.30974134060239     -0.06809007736801     -1.91527384623863
  H           2.92972986713844      0.22530424296556      2.33742190986109
  H           4.37107993672604      0.10962731381283      0.32261475245132
