24
Coordinates from ORCA-job 2015 E -630.724690943100
  O           0.00000416205236      2.55969091522770      0.00117894582519
  N           0.00000482742565     -1.50955111376699      0.00072784722299
  C          -1.24571909129803      0.54786461637573      0.00129740220944
  C           1.24571899419373      0.54786713700285      0.00127287012076
  C          -1.20928502637050     -0.85723152634255      0.00080969566498
  C           1.20929259117519     -0.85722818499590      0.00080731485244
  C          -0.00000006668922      1.33450376328827      0.00155974698785
  C          -2.48788661442140      1.19392397005448      0.00105033286578
  C           2.48788480255596      1.19393159543856      0.00102274354969
  C          -2.40666273365626     -1.58796129789365      0.00007579208095
  C           2.40667348776803     -1.58795267026753      0.00009652073917
  C          -3.66365848953712      0.47466191400584      0.00025645055438
  C           3.66365972363037      0.47467486957612      0.00024107889169
  C          -3.61529144334406     -0.92503292453617     -0.00024500431744
  C           3.61530122768345     -0.92502088885716     -0.00022626241696
  H           0.00000663441762     -2.51592921261416      0.00018814736183
  H          -2.48407160427427      2.27554741639961      0.00137884886332
  H           2.48406900607200      2.27556010389399      0.00133599494589
  H          -2.37284731029065     -2.67122146631401     -0.00040342199209
  H           2.37286277549137     -2.67120999804320     -0.00036762325215
  H          -4.61797293436372      0.98376195597218     -0.00003222149997
  H           4.61796894903932      0.98378060017519     -0.00004103056301
  H          -4.53445736262949     -1.49698403435643     -0.00093568792845
  H           4.53447149536968     -1.49696753942276     -0.00089648076628
