18
Coordinates from ORCA-job 20263 E -422.931443269023
  O          -1.19459853590620     -1.04975496811480      0.05465135944370
  C           0.15896428139723      0.76920619646892     -0.03459026816747
  C           0.10609376606942     -0.62948693406218      0.03554344995365
  C          -1.97477472871485      0.08340827879261     -0.00342989456267
  C          -1.21320862858516      1.20051033597985     -0.05836085163538
  C           1.40691860795220      1.39450525324989     -0.06404420303281
  C           1.22579290188467     -1.43791584997994      0.07785208233946
  C          -3.43823356524570     -0.13981754644067      0.00566653902136
  C           2.54453232227137      0.60207822215416     -0.02248236278053
  C           2.45720379921677     -0.79413461143465      0.04745328698346
  H          -1.58324538359007      2.21097666611140     -0.10960360890115
  H           1.48602077061823      2.47275387543959     -0.11804000748127
  H           1.14192982731251     -2.51469139960099      0.13176913864800
  H          -3.74876490633952     -0.66201891707957      0.91416660988185
  H          -3.96104859316089      0.81407213360850     -0.04337453115933
  H          -3.74607578420323     -0.75106224102308     -0.84645846716720
  H           3.52091020302698      1.06869635277920     -0.04437955781757
  H           3.36456964599624     -1.38295484684826      0.07842028643390
