26
Coordinates from ORCA-job 203797 E -689.091241912217
  O          -1.25080212348305      1.83882873374722      0.47950798212991
  O           2.76165162708210     -0.75767571603007      0.02508389190751
  O          -1.86000783886277      1.43684270958970     -1.73010429096158
  O           2.76422788445648      1.15092210881685      1.12704614542096
  C          -0.03070242518641     -0.48432117947609     -0.72602067862036
  C          -1.52622628847050     -0.46334026959868     -0.35076480463732
  C           0.64461440976339     -1.84231261170510     -0.59505485065734
  C           0.70709843524301      0.52512868269855      0.11341042708241
  C          -1.99741215072590      0.99109000218086     -0.41200302344432
  C           2.12133353010466     -1.67059387191842     -0.88424609199136
  C          -1.81575200890254     -1.05520181361004      0.99783035042952
  C           0.06249432895268      1.57651937033693      0.63588429801280
  C           2.13455053621092      0.36701207626363      0.46031167798998
  C          -2.65302154437138     -2.06268281550090      1.20409409000744
  H          -2.17017335094590      2.34879462724947     -1.78363068683078
  H           0.03254962240198     -0.18055968835259     -1.77642016921673
  H          -2.09359405495742     -1.00765605787268     -1.10843142500992
  H           0.50987178812760     -2.24819905136196      0.40986645028171
  H           0.21667064306408     -2.55957422520373     -1.29989587166128
  H          -3.02458214096135      1.09342082067941     -0.05717778727910
  H           2.27497782551262     -1.30460918178772     -1.90469169662960
  H           2.66870094981815     -2.60520789040699     -0.77203271712435
  H          -1.29423124586555     -0.61326592756725      1.84115229400597
  H           0.55799576775518      2.29933838800899      1.26842185371065
  H          -2.83318690123835     -2.45552068460920      2.19654910282178
  H          -3.18850027452172     -2.53353453457016      0.38678153026343
