21
Coordinates from ORCA-job 20392 E -648.640392541691
  O           1.92242192721037      0.02909027877030      0.69825106992043
  O          -0.14236501946951     -2.40969811841180      1.23880420311992
  O           1.94457787666992      1.88928569989960     -0.56883307109390
  O           0.56877041229177     -2.14544170106974     -0.84825217906372
  C          -0.14016413768563      0.83642991063322     -0.07431187322465
  C          -0.78167215241069     -0.40038679664921      0.06116405225235
  C          -0.90122385395371      1.99114513118193     -0.23571285132819
  C          -2.17400827881585     -0.45382011111913      0.06070718639232
  C          -2.28678297742204      1.93024627028271     -0.24008564476993
  C          -2.92435971008523      0.70566486684079     -0.08792285191823
  C           1.34239798366436      0.99111163054971     -0.03613607286333
  C          -0.03007448264259     -1.70278920994068      0.08738083281502
  C           3.35867602126221      0.01873326917347      0.70967529756602
  H          -0.59345211804806     -1.87672602164853      1.90716479342931
  H          -0.38409846566614      2.93375571183935     -0.35133447755289
  H          -2.67098211474859     -1.41210389747426      0.14608436067935
  H          -2.86698828495652      2.83530361641785     -0.36182921410319
  H          -4.00502871737081      0.64836445054659     -0.09542317860975
  H           3.63738596304491     -0.83575898395899      1.31910676923075
  H           3.73868763421366     -0.09295905692540     -0.30471584753537
  H           3.73985149491818      0.94421806106222      1.13932369665766
