22
Coordinates from ORCA-job 20524 E -387.451356768507
  O          -2.54056923969919     -1.12248138462150     -0.66340859029403
  O           2.84659322408590     -1.24855794288186      0.02539029708389
  C          -0.27960583071819      0.86055254301939     -0.35962043143792
  C          -1.20494683940412      0.37462004765532      0.76569589494022
  C           0.88342297087165     -0.09892905341555     -0.65960201998620
  C           0.20143634355866      2.28554668982198     -0.07308177247657
  C          -1.80934082644933     -1.00781261641851      0.55538257806678
  C           1.81512810082871     -0.38464341666343      0.50441411297981
  H          -3.27350761191745     -0.49729813267819     -0.63996738636278
  H           3.45103985666916     -1.44055312451602      0.74935900826715
  H          -0.88116879659124      0.89321654547188     -1.27238469320297
  H          -0.67106648206482      0.37352222292777      1.72241910618368
  H          -2.01951153518808      1.09992594881064      0.88327152318690
  H           0.49290010380578     -1.05047905272369     -1.02656286652883
  H           1.48260000893772      0.31882360777912     -1.47332747208567
  H           0.76287816938691      2.34377195864102      0.86242661263227
  H           0.84895628015817      2.65045428436596     -0.87320397208043
  H          -0.64411125909761      2.97198928131923      0.01200315002384
  H          -2.44497478220377     -1.26526808485679      1.41175177850509
  H          -1.02985329878867     -1.76791392472934      0.49265742811228
  H           1.27090599405033     -0.86538006221692      1.32648831272825
  H           2.24665944976952      0.54617466590947      0.89099240174523
