73
Coordinates from ORCA-job 20831068 E -1168.457076175126
  O           8.09814302767897      0.15326003162040     -1.00069091258064
  C          -0.39015992535197     -0.48317100980289      0.46876687429237
  C           0.38723875388282      0.80580758879338      0.10087649470307
  C           1.83056683926163      0.80044675625429      0.59989243649821
  C           2.56425833752588     -0.39272135602992     -0.04328179019827
  C          -1.77857378932395     -0.13074178828696     -0.13576447263926
  C           0.35428106960255     -1.66547714269579     -0.16457557382465
  C          -0.54991809742112      1.94183557061393      0.50733580057708
  C           1.83538804602455     -1.70899578079005      0.24495152793524
  C           4.08034939168230     -0.38468935300426      0.29757284282924
  C          -1.95895226040842      1.37464146860076      0.21328429400923
  C          -0.51281288888509     -0.68391443435546      1.98725047483535
  C          -3.01281180112512     -0.96175161281037      0.26513148538168
  C           2.56018628846400      2.08076112264825      0.32940162924598
  C           4.65013934651345      0.92066858843693     -0.24637992235418
  C           4.79245301698209     -1.57592218386114     -0.36982362577961
  C           4.30351582233710     -0.42842586495768      1.82269038698499
  C           3.83607042320968      2.11701275306609     -0.06603351521819
  C           6.31003329541437     -1.41495049714460     -0.39962910380262
  C          -2.88647253743512     -2.45473227220706     -0.06654005368228
  C           5.82791535349547      0.98994068767519     -0.88305398446194
  C          -4.23425327764376     -0.40449279243973     -0.41212653310311
  C           6.71600895224412     -0.17586234344049     -1.18861899492425
  C          -5.29875499438042      0.09625050554342      0.20069563399789
  C          -6.51054467855057      0.67277225278170     -0.47363754919954
  C          -7.79498225472017     -0.09317789667790     -0.07377031393435
  C          -6.59691541479740      2.17327867787857     -0.15688653429204
  C          -9.05208266049087      0.50576348179148     -0.70875893608996
  C          -7.68779415709421     -1.57753393291603     -0.42834085055708
  H           8.20531417529346      0.45995644715858     -0.09207843256020
  H           0.43868101869505      0.81705349865860     -0.99592670025116
  H           1.80194038907377      0.65955153231903      1.68792583969744
  H           2.50775019534755     -0.23033124310307     -1.12795770209983
  H          -1.67246491603175     -0.22219926539172     -1.22379546651583
  H          -0.11102938490427     -2.61590771431344      0.09747134226142
  H           0.28860218840205     -1.57554957781019     -1.25435025948851
  H          -0.43437726572076      2.17940689557908      1.56765675810163
  H          -0.35128026949292      2.85981405349770     -0.04579144380732
  H           2.31693119203945     -2.52575357151892     -0.29461122093616
  H           1.91471033738966     -1.95803699406528      1.30599619311970
  H          -2.44759631817799      1.90411303389754     -0.60385986862339
  H          -2.61614312210629      1.48306828641939      1.07751144871915
  H           0.45806763345914     -0.76092507234046      2.47379863056642
  H          -1.05298227525062      0.13303077840696      2.46584801948498
  H          -1.05450658090824     -1.60584506961987      2.20409007062549
  H          -3.15893732307687     -0.85963695436517      1.34499446712977
  H           2.01497355472236      3.00832774906594      0.46028828633549
  H           4.53137974704825     -2.50024243843509      0.14864430120428
  H           4.42314595579948     -1.67674221447330     -1.39643921323973
  H           3.82004274565648     -1.30221008976281      2.26300803246895
  H           5.36633540883638     -0.48143226729791      2.05593808074432
  H           3.91176548531782      0.46306344361447      2.31036170070787
  H           4.30777318349503      3.06936827689827     -0.28460094834327
  H           6.69812592496960     -1.31762390330903      0.61830339762363
  H           6.78749476394047     -2.29687579091203     -0.83038546213057
  H          -2.10844079597118     -2.93780839741768      0.52253507440855
  H          -3.82792441673483     -2.96696208279085      0.13813563702983
  H          -2.64782687421939     -2.60236241891756     -1.12283508435054
  H           6.17665143719239      1.94988307805584     -1.25349655041172
  H          -4.21985327528703     -0.43252518993083     -1.50153719249168
  H           6.65019017593316     -0.39447483508734     -2.26082136610266
  H          -5.31149194044695      0.12454687720004      1.29031944482909
  H          -6.38335672303220      0.55752426959570     -1.55706057727894
  H          -7.89365997389630     -0.00973671284870      1.01642737841273
  H          -6.79351013655123      2.33373112161382      0.90702373093064
  H          -5.65429788759612      2.66617479346195     -0.39878331448450
  H          -7.38810570695938      2.66473112965014     -0.72305093863279
  H          -9.24420366539542      1.52391915493908     -0.37108099723788
  H          -8.96317886658311      0.52334142632432     -1.79918920516144
  H          -9.92941719357713     -0.09466690297805     -0.45953293421525
  H          -8.58629344694345     -2.11606811705575     -0.12006601780757
  H          -7.57650524274952     -1.70653312965275     -1.50914564063326
  H          -6.82775013768928     -2.04635311724269      0.04915848775446
