44
Coordinates from ORCA-job 208856 E -1112.013616088841
  O           0.80219416101311     -0.89932157943949      0.67699678445897
  O           3.17490361966325     -2.65905871109055      0.86082775261010
  O          -4.87602778450632      0.99412494489324      1.07272239898893
  O          -5.35141840271311     -0.58584429794923     -0.92816467327067
  O           5.99816447068182      2.04577725307100     -1.46139811374031
  C           0.75110674623636      1.32412612516487     -0.21556469385718
  C          -0.01024465443100      0.31367759622402      0.67930137336804
  C           2.14604292264198      0.75143259779142     -0.18913654841254
  C           2.06401029702757     -0.54475746996217      0.32296807978927
  C          -1.41154267303529      0.00585827188468      0.25333076019496
  C           0.61170075864401      2.76574429839707      0.25272219599748
  C           3.34244119727527      1.26120406639570     -0.63259538221321
  C           3.18393765149507     -1.37225751655463      0.41598846056276
  C           4.48178767576231      0.44752330003042     -0.55468036212986
  C          -2.47840987907992      0.62912134680746      0.90709784914444
  C          -1.67199391221678     -0.83552086905943     -0.81387900966933
  C           4.38970496128858     -0.84410846999154     -0.03639884806302
  C          -3.78728766571252      0.42680054250428      0.49547548076642
  C          -2.98289486534469     -1.05765961906516     -1.23049448111364
  C          -4.04619450995860     -0.43339266175551     -0.59340739341616
  C           5.78818361869355      0.94175057425237     -1.00971065669085
  C           2.37585648217811     -2.96796986207703      2.00571267198876
  C          -4.67186529509390      1.86078062746702      2.17347974755239
  C          -5.66555117032988     -1.44349293088781     -2.01087985204444
  H           0.35818578522401      1.24472288596304     -1.23501972730279
  H          -0.00764780742040      0.68382563141624      1.71059783941913
  H           1.00254274135061      2.88481475539439      1.26532714655493
  H           1.16132913829594      3.44240967889065     -0.40254982501199
  H          -0.43605298315031      3.07303744508475      0.24572206570370
  H           3.43305496276912      2.25780792054369     -1.04345171422034
  H          -2.27246470474031      1.27397878076736      1.74937473084947
  H          -0.85799959143004     -1.33768876227072     -1.31851868092265
  H           5.27251567012137     -1.46886415166558      0.02898854137726
  H          -3.16622203866380     -1.72544409788978     -2.05895575311946
  H           6.61530321274616      0.20730869746195     -0.91238186859699
  H           1.31341461483437     -2.96156251966115      1.76706778128567
  H           2.68326051703958     -3.96347288290874      2.31871186175223
  H           2.57057471538238     -2.25611974449429      2.81270513981152
  H          -4.19723060931512      1.33921724889438      3.01045681036261
  H          -4.06083263076131      2.72480822133139      1.89402149491174
  H          -5.66017604616143      2.20017582128873      2.47393744820396
  H          -5.34075298674267     -2.46984256141624     -1.81451571350885
  H          -6.74841685384300     -1.41928459443563     -2.10617051675747
  H          -5.21078485571414     -1.09336032934544     -2.94259060159297
