22
Coordinates from ORCA-job 20908 E -500.340627916146
  O          -2.30909452606699     -2.06164090681593     -0.71111950072137
  C           0.04329691022097     -0.26037605786249      0.10709716475598
  C          -1.36428387515989     -0.07526820055266      0.24185694916079
  C           0.87781509941115      0.88505989896412     -0.06169328920172
  C          -1.88630530226915      1.19380106665314      0.19418054907222
  C           0.65343181605811     -1.53774262064688      0.13644576096517
  C           0.29050389134961      2.17185323796957     -0.10286595294204
  C          -2.27818249131039     -1.24540299299211      0.46511249130640
  C           2.27648924183447      0.70913292421417     -0.18185505316658
  C          -1.06293850017603      2.32427650027313      0.02023676310995
  C           2.01262727114096     -1.67363142558608      0.02080790643233
  C           2.83516112805324     -0.54040246611667     -0.13884323538314
  H          -2.86350735656968     -2.82927265783188     -0.53300409364779
  H          -2.95650706085945      1.32928692763764      0.29409336059206
  H           0.03137113914915     -2.41636258459214      0.22395620920417
  H           0.93332584585569      3.03403843769156     -0.23402579209979
  H          -3.28097348278811     -0.87458295534730      0.70019500729995
  H          -1.92963560088440     -1.83362900136983      1.32357227397663
  H           2.90025640822294      1.58589078847935     -0.30894610137331
  H          -1.50849993315061      3.31013589222243     -0.01406470164406
  H           2.45947206381462     -2.65951379004181      0.04425813933902
  H           3.90681231412378     -0.66205501434933     -0.23204185503486
