53
Coordinates from ORCA-job 21205 E -818.620325264126
  O           8.81218570966146      0.65267554570157     -0.17113767947069
  O           7.84942902027766     -1.29656375671032      0.40220365897170
  C          -2.43841411718174     -0.43286462959799      0.08032117378071
  C          -3.73518920366957      0.33723487789040     -0.15573299889128
  C          -1.18231442729264      0.40232459155643     -0.15435725514020
  C          -4.99124248245797     -0.49746978326235      0.08057419975747
  C           0.11439567192060     -0.36898481119038      0.07800608319557
  C          -6.28802408078493      0.27127279148885     -0.16267158979096
  C           1.37034695570050      0.46670652267039     -0.15562020085289
  C          -7.53807311941985     -0.57004047382466      0.08577907220594
  C          -8.86657375589053      0.11788084172991     -0.25256813356189
  C           2.66665773410877     -0.30564276962451      0.07497809328580
  C           3.92221033606171      0.53052614859119     -0.15850282272606
  C           5.21410175052965     -0.24833000568891      0.07377387731825
  C          -9.11650497946887      1.35654761752195      0.61007903066145
  C         -10.02830001454267     -0.86852571896255     -0.12283906975090
  C           6.45585981617150      0.60024077536866     -0.16372446845272
  C           7.74850521306468     -0.14569929665644      0.06121368047375
  C          10.09963817006948      0.04573585520318      0.01419590672657
  H          -2.42904459275364     -0.81958374955034      1.10582430351858
  H          -2.41567445549464     -1.31162469260363     -0.57429974228685
  H          -3.75736007788845      1.21689814554877      0.49773868836291
  H          -3.74503153056928      0.72252314745855     -1.18183883734717
  H          -1.19298705724193      0.79110366446323     -1.17911270476799
  H          -1.20375748864060      1.27978283918856      0.50212301098536
  H          -4.96655275217444     -1.38014672893366     -0.56859342645876
  H          -4.98422727278714     -0.87801634162543      1.10843715575632
  H           0.12492980122029     -0.75871678441854      1.10230546923816
  H           0.13627517376024     -1.24577499267333     -0.57921324575623
  H          -6.29913823982595      1.15805441687746      0.47785482994421
  H          -6.30062568164876      0.64030780591150     -1.19499370242461
  H           1.35924069796308      0.85737383009362     -1.17965976377353
  H           1.34919136366528      1.34284047591072      0.50264921146130
  H          -7.46339545018256     -1.49035991998673     -0.50404117209790
  H          -7.56081352960854     -0.88531166596729      1.13637056562491
  H          -8.81426145333823      0.44097307037457     -1.29993498670929
  H           2.67859096416154     -0.69651291271442      1.09860657020957
  H           2.68875494904255     -1.18138868810238     -0.58328903505838
  H           3.91030664317709      0.92176382786560     -1.18248274425395
  H           3.90029551192987      1.40662027114696      0.50006708208662
  H           5.23437486322749     -0.63953573808067      1.09412946637707
  H           5.24412666131882     -1.12281638174475     -0.58122911643992
  H          -9.13709192576822      1.08817713128032      1.67074428446648
  H          -8.34443245495814      2.11444317863469      0.47227493738981
  H         -10.07723137047922      1.81483595235034      0.36529497890440
  H         -10.12164540819962     -1.22192715636230      0.90827013589798
  H         -10.97679522326871     -0.40383497676243     -0.40114393987453
  H          -9.88077435373221     -1.74227249309232     -0.76156868743451
  H           6.47466892640196      0.99564066948378     -1.18398609283163
  H           6.46353493046186      1.47903789933927      0.48855890704273
  H          10.21586066227502     -0.29752633759079      1.04189456742649
  H          10.22226041827785     -0.80308941107895     -0.65806527599226
  H          10.82510555482020      0.82192832315560     -0.21387424892501
