47
Coordinates from ORCA-job 21204 E -740.012999440479
  O           7.54550753329366     -0.66342744076340     -0.16460891008844
  O           6.59217974764094      1.29100904971373      0.40676901738263
  C          -2.44751048291918     -0.35980094712215     -0.16391779222909
  C          -3.69948131827312      0.47941742012286      0.07803282764194
  C          -1.14714851298909      0.40241649839137      0.07788602157761
  C          -4.99990842492177     -0.28169215970209     -0.16968596596459
  C           0.10477573613275     -0.43731660506957     -0.16282277247099
  C          -6.24590052063042      0.56403172605846      0.08405953173203
  C           1.40474331269867      0.32608588000581      0.07679218981900
  C          -7.57774037199552     -0.11596037726844     -0.25719894633477
  C           2.65626379220610     -0.51417361158838     -0.16359390334547
  C           3.95186149848566      0.25582205313670      0.07744148184623
  C          -7.83316874461412     -1.35769999518219      0.59939605236407
  C          -8.73475651605743      0.87524028868348     -0.12206475646343
  C           5.18953433307773     -0.59677607851830     -0.16688403854226
  C           6.48571809003404      0.14104582320095      0.06438377343814
  C           8.83582800068763     -0.06402273010720      0.02516235202605
  H          -2.47413671700594     -1.24387611306806      0.48340716251404
  H          -2.45900687357786     -0.73781833003916     -1.19270152035903
  H          -3.69035823302795      0.85341610834035      1.10826202073205
  H          -3.67070676605274      1.36604196852588     -0.56554102288213
  H          -1.11993303723073      1.28576546493588     -0.57027291914176
  H          -1.13591418771130      0.78151446484243      1.10615681769515
  H          -5.01440606970522     -0.64443209734369     -1.20421092958332
  H          -5.01513341942820     -1.17226053547829      0.46548999741122
  H           0.07843926294755     -1.31985776509169      0.48663711404746
  H           0.09276784951138     -0.81765644592749     -1.19073142726739
  H          -6.26656675468837      0.87371047848032      1.13634843224269
  H          -6.16730844114324      1.48715560780446     -0.50083315683248
  H           1.43205970552368      1.20815593320430     -0.57277123912004
  H           1.41751397680958      0.70677107228804      1.10424271923053
  H          -7.52737156987946     -0.43405078024369     -1.30619308133411
  H           2.62919300774610     -1.39651885700349      0.48637419041784
  H           2.64341141989651     -0.89535089484173     -1.19135017291299
  H           3.98710939484912      1.13637537742738     -0.56907250076527
  H           3.97294345011284      0.63710635437292      1.10155694723755
  H          -7.85228425193464     -1.09442440246044      1.66137152115535
  H          -8.79606405311876     -1.81035096351593      0.35266432165989
  H          -7.06462729089864     -2.11847216462567      0.45772060545773
  H          -8.82609709243070      1.22383914524312      0.91085836196436
  H          -8.58330422803651      1.75151141379058     -0.75639658999544
  H          -9.68553298481161      0.41646852724456     -0.40238340692069
  H           5.19270973738959     -1.48151853956280      0.47723910834075
  H           5.20675406409355     -0.98284709453563     -1.19080091303735
  H           8.95046475911164      0.27872226525171      1.05320587928271
  H           9.55750171753866     -0.84450904336908     -0.20027134960461
  H           8.96581347329518      0.78395805136327     -0.64679213202135
