28
Coordinates from ORCA-job 2130 E -445.986207219082
  N           2.73930825037873     -0.01761320100223     -0.08257520340515
  C           1.27668019406153     -0.03484294423036     -0.01052243204848
  C          -0.80370199708297     -0.75048384573330     -1.24506981639457
  C          -0.80522912359817     -0.71227246064826      1.26376596833030
  C          -0.76932219108878      1.44094083628785     -0.02405989480196
  C           0.73124567657649     -0.76693787339359     -1.24549865622093
  C           0.73033071355183     -0.73043180799635      1.25330268782301
  C           0.76544749720236      1.41323030788287     -0.03087894650086
  C          -1.32668752384009     -1.44668227304485      0.01999544958889
  C          -1.29431298280997      0.70482152496263     -1.26568207033307
  C          -1.29232245608868      0.74389525656738      1.24057440719861
  H           3.12495295269416      0.45821612845914      0.72729783219041
  H           3.10266716604536     -0.96562494515583     -0.06653615630854
  H          -1.17154958766785     -1.27444809865779     -2.13147148883377
  H          -1.17247896942823     -1.20930697709002      2.16608699197520
  H          -1.11280690819985      2.47888054404285     -0.04006956696188
  H           1.12434665596231     -0.28513805687981     -2.14408048473902
  H           1.09692901610965     -1.79984427091142     -1.24639137705912
  H           1.09800590429005     -1.76167957363516      1.28391076773801
  H           1.12182109010616     -0.22255855984518      2.14123523410078
  H           1.15596651963047      1.94857712323839      0.84176926803378
  H           1.15877339741757      1.91426382537903     -0.91878738885944
  H          -2.42077588414642     -1.45298446901965      0.01937441220695
  H          -0.99953618021209     -2.49082862884384      0.03653965973625
  H          -0.94539044135881      1.20537998645478     -2.17366045030447
  H          -2.38800137911064      0.73153671987774     -1.28282926642106
  H          -2.38584178440750      0.77396530275492      1.26003661109612
  H          -0.94064062498661      1.27114043018005      2.13269890917398
