49
Coordinates from ORCA-job 21582571 E -1301.746347637560
  O           0.16427508825652     -0.33667855417969     -0.06984334154211
  O           2.08677762227081     -2.03178206064366     -2.67215652302417
  O           0.17984311538796     -3.00401983091090      1.07006029355893
  O           4.00693330669659      2.45267095514715      1.03956297185524
  O          -1.17124866079184     -0.69805619762667      2.30663917501810
  O           6.29724905338937      1.16827960671405      0.98990577190783
  O          -8.57389878412765      1.01054287425371     -1.26284974306079
  C           0.72511021468991     -1.48263864449472     -0.75681226357553
  C           1.80822898109695     -0.99584600156282     -1.74191255613473
  C           3.04293196303690     -0.43783946974481     -1.05861541253751
  C           1.22948253177882     -2.45140018550660      0.30267965522796
  C           2.94340034488812      0.76631428742171     -0.35164047084817
  C           4.26135211972854     -1.09326395028905     -1.08834167189675
  C          -1.19155382552082     -0.20501724189518     -0.04997085625642
  C           4.02797239873787      1.29533606529548      0.33062384623901
  C           5.35901964421037     -0.56893953890749     -0.40677345523681
  C          -1.85679899736512     -0.32119507952602      1.17441131508272
  C           5.25800410437878      0.61102833689722      0.30668203825337
  C          -1.92429859493855      0.08067082178408     -1.20023760427232
  C          -3.22800507652500     -0.14755156703942      1.23476170364313
  C          -3.97419719310170      0.13888696233992      0.08555622935810
  C          -3.29472562066343      0.24753638572409     -1.13567728261375
  C          -5.41335476192271      0.30725042396585      0.20886757031664
  C           2.79751891977734      3.18782272056881      1.07589417907534
  C          -0.32886175510962      0.31177382463191      2.88014112225431
  C          -6.29619250645845      0.60565268897515     -0.75812320227030
  C          -7.71614432015858      0.73969005240861     -0.45111636519661
  H           2.50030816640989     -2.77123149346409     -2.21345066598288
  H          -0.20568263714970     -2.30401176823562      1.62004905512710
  H           7.07820624549094      0.61369903538777      0.88257094339857
  H          -0.06241444223415     -1.96111188645766     -1.34213468261920
  H           1.35252041930492     -0.20315911817477     -2.33935868362394
  H           1.96548123651187     -1.93991648854530      0.93106759526029
  H           1.73323508623424     -3.29275427868592     -0.18057094143297
  H           1.99603891387941      1.28100824339838     -0.33388444217343
  H           4.38934954910857     -2.00233454719894     -1.65890656358240
  H           6.31150155430001     -1.08696486912150     -0.43860332727556
  H          -1.40305857035872      0.16878361828414     -2.14452427161077
  H          -3.71823111670326     -0.26109498403713      2.19346506666152
  H          -3.84169895110839      0.46697145276149     -2.04195282798110
  H          -5.80775179399116      0.17369878729823      1.21375676298170
  H           1.98961574590867      2.60666131367959      1.53150775017618
  H           2.99925405083218      4.06556538113885      1.68503160711414
  H           2.49040270852750      3.50217461435845      0.07381520614751
  H           0.11593321315593     -0.13139989743052      3.76828746679950
  H           0.45379626007319      0.60598471563485      2.18038332266778
  H          -0.92681503189002      1.18150531768143      3.16309126382431
  H          -6.01059703067607      0.76110876801812     -1.79160873663817
  H          -7.97775288726725      0.57268739990943      0.61613397943710
