93
Coordinates from ORCA-job 21629954 E -2151.781223390883
  O           3.54716500031461     -0.80716342417866      1.99513875849095
  O           4.13935148314682      1.24608779602042      0.18541412601166
  O          -1.27559015780531     -1.70055336600542     -0.63688575304756
  O           4.23338214540428     -1.47310324566668     -0.76149155405918
  O          -2.22226734701780      0.74802498443589      0.78798098785503
  O           4.01909368109675      2.38080704148986      2.13377161298853
  O          -1.18591800550657     -3.30454411074590     -2.22357248407181
  O          -5.66491746323705      2.06937817865307     -1.26897810765738
  O           5.49019782094867     -0.28950317480112     -2.22030707693883
  O          -0.75551648802111      1.87177146098870      2.07905315186667
  O          -6.00791669535173      4.28903011246711     -1.50487532498133
  C           2.22064030776337     -0.22206642214987     -0.11962556160798
  C           2.39554116516145     -1.03556031503820      1.18174116333664
  C           0.65495266563018     -0.19348752076751     -0.39027784326180
  C           0.16631076242214      0.80040190619286     -1.51295447024541
  C           2.70586258209775      1.22790445309142      0.04775793442456
  C           0.16637587118335     -1.65449402336664     -0.52503236366405
  C           0.82734267511525      2.19499232229116     -1.27591512039666
  C           1.97791019572008     -2.47854590937831      1.04896729719322
  C           2.26554699679797     -0.42277931715120      2.51038607224072
  C           2.33933292723169      2.11126498449722     -1.12154381128556
  C           0.50106904253312     -2.52097867705008      0.68544284479316
  C           3.01418269384242     -0.90596104776043     -1.26186412761779
  C          -1.37794749078258      1.01958672909570     -1.50459011620536
  C           0.48353148206016      0.25873639010852     -2.91745786868646
  C           0.48182440166093      3.25916773169899     -2.32168563207885
  C          -2.05006553178897      1.68853374489220     -0.29963245179118
  C          -3.42006029771709      2.16068606853978     -0.66474479105513
  C           4.66364993421756      1.80507998798698      1.29414431431559
  C          -1.82210167212335     -2.59550083505045     -1.48497334798125
  C           5.40125446902981     -1.04805099798048     -1.29077691566816
  C          -3.32989973148224     -2.60248358912813     -1.35188160671188
  C          -4.56696659991721      1.22808894672596     -0.92334872186018
  C           6.15001391449555      1.59616347692586      1.34116196090921
  C          -3.84168910892591      3.40854521608193     -0.85231296299175
  C           6.55604247541164     -1.67957121606855     -0.56497609969572
  C          -1.52385884351585      0.94980996939377      1.92858386441495
  C          -3.71886924814924     -3.77548233495281     -0.42802052356519
  C          -3.98934526517766     -2.67814477724546     -2.72763892344436
  C          -5.26533971813149      3.38799301168137     -1.24440792025409
  C          -1.79836288156613     -0.12922085145542      2.91739672052881
  C          -5.18262522479422     -3.74769360398097      0.00078050974346
  C          -2.84364061723238     -1.15142958909244      2.57536215495027
  C          -1.05764245789229     -0.10201783988946      4.03212594181389
  C          -1.08827688948447     -1.05426186189778      5.17609351029210
  H           0.25314059534896      0.19106914352601      0.54411970797713
  H           2.27186878413871      1.65833874847911      0.94655767406808
  H           0.56377491881246     -2.11208552094729     -1.42620971965964
  H           0.45474245482352      2.54995407552583     -0.31109630024887
  H           2.58628652624559     -2.98155427489116      0.29700846023660
  H           2.15532510447361     -2.99101150637932      1.99502600343767
  H           1.89616147894057     -1.03998165693692      3.32478600472695
  H           2.12183151749638      0.64242009174810      2.63857250414990
  H           2.73590056925807      3.10867614095285     -0.92159029431650
  H           2.82258062541272      1.76879074381348     -2.03846216634392
  H          -0.09011982722893     -2.15501294399875      1.52892154779000
  H           0.17783374121049     -3.54234751865359      0.47601208613912
  H           3.26683535543485     -0.20324296949254     -2.04716022868225
  H           2.46136185863559     -1.72726544379605     -1.70804353428610
  H          -1.59672812236455      1.66443185847800     -2.35563091743489
  H          -1.89216914762237      0.08741884038317     -1.70270765993853
  H           1.55099293858893      0.19372594923541     -3.11220932834096
  H           0.05849804437625     -0.73443183806598     -3.06526042961167
  H           0.05551094645669      0.90480165867577     -3.68335033121573
  H           0.94441455415505      4.20567414545264     -2.03764003140568
  H           0.86447824034307      2.99492007389725     -3.30870901335052
  H          -0.58844389251873      3.44180468961442     -2.41396370797670
  H          -1.46860510534010      2.52804275821390      0.06972487247554
  H          -3.61508415896753     -1.67519426481698     -0.85024586152469
  H          -4.82568628094231      0.63891528576125     -0.04068304153181
  H          -4.36996488348745      0.54169943278865     -1.75142069748818
  H           6.33344416682437      0.62715062408585      1.81027952320130
  H           6.57799342333461      1.57963245637244      0.34040495178008
  H           6.61057383671615      2.37080400683592      1.94925103912200
  H          -3.28543343536651      4.32633013087420     -0.74614520764472
  H           6.59931801039547     -2.74228515909917     -0.81198341713967
  H           7.48347132080996     -1.20173898994934     -0.86839258849256
  H           6.41086904432387     -1.59803474948464      0.51154973905292
  H          -3.48880959792064     -4.71236150216039     -0.94195139331173
  H          -3.08584020896692     -3.74525132389218      0.46333019166441
  H          -5.07504991454276     -2.65987262356599     -2.63816654377980
  H          -3.69166230537460     -1.83514021628649     -3.35402357524071
  H          -3.69487538351569     -3.59350288593977     -3.24105351452454
  H          -5.39848564493965     -4.56913287289469      0.68587249466831
  H          -5.42237558330837     -2.81370468334268      0.51507012674268
  H          -5.85845380949262     -3.84419009794332     -0.84973634696436
  H          -2.93289662442968     -1.90921393963230      3.35014675458109
  H          -3.82135501066019     -0.68093308188256      2.44966856969689
  H          -2.60537065915318     -1.64307344609519      1.63254455509000
  H          -0.34742714555905      0.71432625909038      4.11309251799592
  H          -1.33486993808685     -0.52232042717437      6.09993950456793
  H          -1.80092829254455     -1.86636931485817      5.04931803839804
  H          -0.09574504188764     -1.48817232408152      5.33153853754765
