24
Coordinates from ORCA-job 21648 E -538.671243937439
  O           3.89795265552083     -0.05377413264349      0.99210456672458
  O          -4.40654879552768      0.03277906480008     -0.60073153208333
  C           1.09325871340658      0.02420799179093      0.82053522081604
  C           1.97415048001673     -0.04701165922314     -0.42700824136084
  C          -0.37331779020668      0.01163959394885      0.47843814473534
  C          -1.05577395835836      1.19328606813457      0.18519532624662
  C          -1.08577871322187     -1.18232919952329      0.40278138706051
  C           3.46331754956073     -0.04957373166104     -0.13670599249366
  C          -2.39492221436440      1.19146548269412     -0.17333817531009
  C          -2.42834021967044     -1.20385778453708      0.04516469038453
  C          -3.08678701357695     -0.01364755107870     -0.24588889435289
  C           4.37851008125020     -0.04383328224792     -1.34199928621756
  H          -4.77053169895294     -0.85950398593659     -0.60434806555579
  H           1.33760544998809     -0.81408865001582      1.47458551451954
  H           1.34399535137262      0.92738567057074      1.37983372942747
  H           1.74336063662063     -0.94756714453900     -1.00787931640633
  H           1.75595252830476      0.78701195579641     -1.10325961176271
  H          -0.52941344297795      2.13913208735040      0.24522525381640
  H          -0.58707556100357     -2.11669297793674      0.63335960768104
  H          -2.91850014263587      2.11245205759857     -0.39260144095479
  H          -2.96441666061010     -2.14581230731648     -0.00079394596430
  H           5.41505698011909     -0.12832486815953     -1.02321060561928
  H           4.12819262397897     -0.86422183735173     -2.01891361768957
  H           4.24436216096757      0.88430113948589     -1.90417071564093
