43
Coordinates from ORCA-job 22156 E -941.707309848224
  O          -1.91821445429893      2.09568529366219     -0.05244294688826
  O          -3.93461804091531      0.24505596409364     -0.30754212251670
  N           1.61867061214510     -2.91306360664023     -0.21107211795068
  C           1.44309301852907     -1.50565801384673      0.14009403411200
  C          -0.00564711614386     -1.05925314870542      0.06707284792490
  C           2.25478335011932     -0.57705940625907     -0.76457981764491
  C          -1.04353475660407     -1.97648826526452     -0.04730523036970
  C           0.63164976498070     -3.75278338377846      0.45479026413478
  C          -0.26973164309013      0.32768275287829      0.09698063849630
  C          -0.75286580990695     -3.45192122783354     -0.08356062440785
  C           2.12152069814012      0.83218824618664     -0.26420501294309
  C           0.86898141949961      1.26594964153427      0.20272164806302
  C          -1.59664339145003      0.75808467171495     -0.02612352247438
  C          -2.35630029738256     -1.52266807002874     -0.13939477392917
  C           2.96598069910735     -3.38301737142440      0.06685440372407
  C          -2.63714021056290     -0.17036585659379     -0.13656066931248
  C           3.21478277775083      1.68832150176195     -0.21418719631886
  C           0.76931614716313      2.54549358511387      0.76071376824005
  C           3.09614961512239      2.96805896475365      0.31119384030434
  C           1.87071797065813      3.38753033446854      0.81261343086507
  C          -2.04325819712433      2.63189296632549     -1.37132984684262
  C          -4.53864334545559      0.83658909733576      0.84453432602786
  H           1.79349947176163     -1.33970026611797      1.18002587869811
  H           3.30698787748716     -0.85475923248608     -0.78062534816992
  H           1.87224694180653     -0.67627865280091     -1.78646019819536
  H           0.88768359918867     -4.79677863732086      0.26792488135553
  H           0.65270708414202     -3.60525416989009      1.55061375370821
  H          -1.50642973933462     -3.99462559748372      0.49285376066216
  H          -0.81832630215981     -3.81128191089984     -1.11530545770920
  H          -3.17862648839594     -2.22193510091959     -0.22907198536123
  H           3.24263307795249     -3.27210206926825      1.13030830365125
  H           3.03779963320494     -4.43902510132286     -0.19444035005383
  H           3.69937610537988     -2.84565158632225     -0.53105510388064
  H           4.17372805367870      1.34025427583148     -0.57996810441232
  H          -0.17669374555948      2.88028483749233      1.15364007588906
  H           3.95689194078331      3.62374593152176      0.34609392077568
  H           1.77013161546794      4.37245558135667      1.25080605581371
  H          -2.31672548473232      3.67910597084535     -1.25592303704809
  H          -1.09155289337728      2.56028904072776     -1.90497675528031
  H          -2.82161486963690      2.10568008658520     -1.92824315540058
  H          -3.99499798160323      1.72801637101970      1.16035415171321
  H          -5.55253437569393      1.10572660656759      0.55408667535503
  H          -4.57509333064082      0.11562695343023      1.66705671759585
