29
Coordinates from ORCA-job 222064 E -691.329204473022
  O          -1.96181847825050      1.03105379162949      0.23081173848676
  O           4.39902901738918      0.73240188442205     -0.31008469682183
  O           3.92702179472386     -1.36341221914240      0.22291160151225
  C          -2.98248846804514      0.03483801829508     -0.06129945415282
  C          -2.58369129556028     -1.29421979582073      0.58224126901559
  C          -1.23165000224069     -1.78030480804725      0.07115721849096
  C          -0.22659465670874     -0.65931027240130      0.08347838994896
  C          -4.25017343500245      0.59083471745595      0.56638262262819
  C          -3.12124612398560     -0.06626806997580     -1.57908653939585
  C          -0.65857250239129      0.67216715600826      0.16150165630738
  C           1.13756266521765     -0.90486406756789      0.03918512036118
  C           0.27061486189096      1.71395500704392      0.20663341292949
  C           2.07814176164496      0.12223108748492      0.05671543351770
  C           1.62265580669263      1.44126391929406      0.15232591310827
  C           3.51708553705176     -0.25452193680986      0.00610692484559
  H           3.92875725317496      1.53118609612497     -0.57842139887301
  H          -2.53768438054824     -1.14519535008041      1.66409349268663
  H          -3.36168337543420     -2.03486320903888      0.38945276182185
  H          -0.86833775156609     -2.60603858961446      0.68581497883310
  H          -1.33208386130218     -2.17813603577840     -0.94315192212943
  H          -4.13312542411207      0.68279877534117      1.64659447740022
  H          -4.47440858335634      1.57660090586895      0.15763150698221
  H          -5.09353646403045     -0.07010361496451      0.36120247818548
  H          -3.87758021412217     -0.80783553154660     -1.84244972741075
  H          -3.42279317477466      0.89761980995878     -1.98956723620785
  H          -2.18137841892427     -0.35408527256535     -2.04952497432234
  H           1.49905792125572     -1.92450381597915     -0.00474556265429
  H          -0.09495302321810      2.72830344804771      0.29114219888114
  H           2.31484901453181      2.27216097235766      0.22493431602520
