16
Coordinates from ORCA-job 22201 E -342.900155228785
  N           0.61800217241983      1.38881069653672     -0.03521645724907
  N           0.61832733328599     -1.38866195663961     -0.03450032233672
  C          -0.52325194871431      0.70530922603084      0.00205439535378
  C          -0.52308737246017     -0.70541060348686      0.00239034426240
  C          -1.80097770207687      1.48934845647462      0.04331953213444
  C          -1.80063325101584     -1.48972370723033      0.04408418643525
  C           1.75348404465252      0.69225947012775     -0.07194709358736
  C           1.75364622926458     -0.69186491313845     -0.07156505850894
  H          -2.38116666262486      1.25599998850108      0.93995302766848
  H          -1.57364162215698      2.55292017946529      0.03669220306383
  H          -2.43695179134040      1.25721110071008     -0.81500547974738
  H          -2.37971859289764     -1.25766476599203      0.94178619100755
  H          -2.43773775976066     -1.25657211167686     -0.81310433935046
  H          -1.57311605070790     -2.55324666316291      0.03592383210865
  H           2.67972788862116      1.25543890634010     -0.10221703675486
  H           2.68002308551155     -1.25484130285943     -0.10150392449959
