80
Coordinates from ORCA-job 222284 E -1210.199600155095
  O           8.42538319332016      0.39459555749094     -0.19668226542203
  C          -0.30649647997844      0.11953879445439      0.16703490039486
  C           0.62828403331286     -1.05085318241837      0.54392328453926
  C           2.01694622632030     -0.99462309660245     -0.07774692117539
  C           2.70251416490367      0.33494429157258      0.28938194509959
  C          -1.59653442132999     -0.30408760278955      0.92822298516774
  C           0.38361851192520      1.39937048007949      0.65273413085396
  C           4.10236439352565      0.48058102584237     -0.37648750659661
  C          -0.22195789784939     -2.30055182363119      0.32483843876310
  C           1.78717808861495      1.54669710954014      0.05142210337537
  C          -1.64503707023831     -1.84918585688573      0.72689742846236
  C           2.87597934411392     -2.16605600906482      0.39663877943525
  C          -2.93289415669072      0.37298846844650      0.57687270380245
  C          -0.57741850887719      0.18405927824011     -1.34439987466542
  C           4.89379879483253     -0.81622340193870     -0.23527672069484
  C           4.87835418552581      1.60510096231883      0.35585862856059
  C           4.33310243702022     -1.96788541921223      0.12734005600438
  C           3.98308017876286      0.82577764675746     -1.87563893883491
  C           6.37039943723793     -0.74557611028774     -0.53479957129343
  C          -4.05658031214293     -0.20883573424475      1.45407746363005
  C           6.35611374915762      1.69638361357001     -0.01993921823146
  C           7.06283020334591      0.37231238717806      0.23077498433575
  C          -2.89388713949984      1.89718776790551      0.70036282900817
  C          -5.47720096480468      0.28692302088961      1.15166269549042
  C          -5.94490803338937      0.11643373465465     -0.30260564743092
  C          -7.29089649549269      0.82801264714466     -0.58381593445483
  C          -5.95451547275205     -1.36712751122312     -0.70347693291310
  C          -7.18141447489726      2.34797919691760     -0.43427884578760
  C          -8.45879241491168      0.28772646434284      0.24484688247055
  C          -6.32766173302954     -1.64333571781911     -2.15857174681221
  H           8.87925360583687      1.10803843377151      0.26523307584805
  H           0.77902059985132     -0.95979362079865      1.62942289606212
  H           1.92574645181016     -1.06308932999931     -1.16650452576327
  H           2.88825159880529      0.28175372436039      1.37088381255623
  H          -1.40399193836914     -0.10444780393711      1.98997651702188
  H          -0.19503065663169      2.28999669023295      0.40773875676358
  H           0.45309348167040      1.36287278654509      1.74548428715043
  H          -0.18760413331087     -2.60786081996215     -0.72325774383821
  H           0.12551389652642     -3.14946944220167      0.91390676305927
  H           2.25118234905555      2.44343058374517      0.46653455158412
  H           1.68788539008774      1.72905658585495     -1.01934209040238
  H          -1.97798349029560     -2.35049548511929      1.63518920109566
  H          -2.36844641462627     -2.10553447155742     -0.05023042052586
  H           2.72146472525395     -2.31716360628120      1.47417588010227
  H           2.53998399779872     -3.09363235958897     -0.07657586638681
  H          -3.15775914526964      0.12409030864360     -0.46524298170207
  H          -1.19381367459512      1.05058423549447     -1.58787028145707
  H           0.34054208334636      0.26706239395356     -1.92360498970027
  H          -1.10528864799423     -0.70129204942972     -1.69942338917775
  H           4.39546968579969      2.56441313373017      0.16309732076996
  H           4.80013464211237      1.42553994287100      1.43318890436620
  H           4.96921895517423     -2.84252994739819      0.23187778895080
  H           3.59789098617734      1.83538517494364     -2.02260584767316
  H           4.94967844435643      0.77187503594749     -2.37360333904379
  H           3.31881290852104      0.12673223990051     -2.38460631368423
  H           6.84640682426016     -1.69940202251360     -0.30426838572525
  H           6.53927414593195     -0.55775257247102     -1.60078281130385
  H          -4.03882687551655     -1.29636241044183      1.38437470678182
  H          -3.82855479685331      0.02480077822229      2.50057313738325
  H           6.47852399468761      1.96087438761914     -1.07373729742160
  H           6.83339170791341      2.49115254681390      0.56333407380718
  H           7.01678285375483      0.14233255567262      1.30525991810425
  H          -2.58638175437445      2.19859333365491      1.70551596226847
  H          -2.20184220017366      2.34700278556871     -0.00852186168252
  H          -3.87481301435236      2.33296193122486      0.50994759911549
  H          -6.16407722849221     -0.25187997550714      1.81105822203227
  H          -5.55729962966962      1.33692872037983      1.43576141082867
  H          -5.21306987412220      0.61344295692882     -0.95065257072676
  H          -7.52445411906352      0.63933065258714     -1.63568494948389
  H          -4.95873776046255     -1.77738369987753     -0.52215558471805
  H          -6.62629379766310     -1.92040465764045     -0.03938396671150
  H          -7.04544608649289      2.64687330041543      0.60697622918838
  H          -6.33985619468634      2.74224952636438     -1.00901458742684
  H          -8.08965457863969      2.83566261289135     -0.79508010827339
  H          -8.31832622057856      0.48541617294682      1.30962559598159
  H          -9.39299854160675      0.76703915957738     -0.05570013035185
  H          -8.58610890549399     -0.78873829926974      0.11896189005309
  H          -7.37047269066022     -1.40339696747064     -2.37108107567739
  H          -5.70741211431458     -1.05525000218074     -2.84059146999399
  H          -6.17988321045821     -2.69720712844371     -2.40270302710437
