18
Coordinates from ORCA-job 222285 E -459.282997977239
  O           1.04649990342052     -1.02029760169191     -0.98443035514594
  O          -1.30897021176792     -1.50751516676993      0.40716830916802
  O           3.03168908063509      0.68237412365185      0.37885864991348
  O          -2.72382932079160      0.92765323700225     -0.13984646506862
  C           0.83510051320021     -0.41167357578608      0.27453865374723
  C          -0.66986939669628     -0.23506620467800      0.54158291796921
  C           1.62928114569185      0.88301871110268      0.34286739350170
  C          -1.35185232369463      0.71898495618701     -0.42987765481219
  H           0.39852597987332     -1.73457297120213     -1.05905106142326
  H          -1.12730663169008     -2.03733733393215      1.19104767468500
  H           3.24045350082376      0.05856547759751      1.08310122600237
  H          -2.80149068837608      1.33986222770877      0.72741304675766
  H           1.21573172569266     -1.07295964298001      1.07578475103138
  H          -0.80167002677249      0.14610817005670      1.56420240877810
  H           1.29266319662205      1.46018972781015      1.21630979034518
  H           1.44070758037740      1.47594791301958     -0.55171564766817
  H          -1.31388997408058      0.29830716846399     -1.43373212890742
  H          -0.80564805246721      1.66876178443974     -0.44303250887375
