36
Coordinates from ORCA-job 2236 E -1235.550802828535
  O           0.69686217033802      3.33185963560579      0.00757280217200
  O           2.97704607872758      3.06454054607488     -0.09276654480481
  O          -4.26864194592601     -1.19113077319351      0.04881230284240
  O           3.95121369333985     -2.09949027211982      0.25293425880562
  O           2.35980582777292     -2.54436973658107     -1.22798362959072
  O          -0.22292363944663     -3.81524811652665      0.35231731508323
  O           1.29183272764675     -2.82387105596630      1.53685480820826
  N           0.35928696742958     -2.82248598356320      0.74235700305256
  C           0.11982196644727      0.90965279551600      0.11139654389400
  C           0.74254470757847     -0.38451336797023      0.13447189121107
  C          -1.32552289270730      1.04413562278398      0.09405588133356
  C           0.99968770740466      1.99427899335228      0.06454441919821
  C          -2.11175899032811     -0.13570043619307      0.09545337039802
  C          -0.14010412397599     -1.50594075737578      0.30385016733428
  C           2.14262019804198     -0.51188378311077     -0.02064656913340
  C           2.36544950320035      1.84494773637400      0.00109079543258
  C          -1.48575747295266     -1.40004194902444      0.24991342872190
  C           2.96618896756036      0.60776515901529     -0.06907642070612
  C          -1.98793672810903      2.28492937051346      0.05215623622246
  C          -3.51978355033301     -0.04346609157092      0.02475799635658
  C           1.94489396744962      4.02137499914523      0.14133489448939
  C          -3.36498512238477      2.34548957317488     -0.00073684665181
  C          -4.14065543323660      1.18376072668560     -0.02198142569295
  C           2.78399229946632     -1.82070280095783     -0.37103088592168
  C          -4.50253515744377     -1.77908732827548     -1.23416210522975
  H           4.04523225453669     -1.54364681881597      1.03783629093963
  H          -2.09556655815383     -2.27754694625479      0.39731861163619
  H           4.03178531210089      0.51789629998638     -0.22652782530589
  H          -1.42098471360357      3.19904323656654      0.05856302114905
  H           2.00210796777584      4.81348722641141     -0.60322076677285
  H           2.03172598472773      4.41543227524628      1.16001219200619
  H          -3.85285113780837      3.31117667539925     -0.03067889000755
  H          -5.22071142280279      1.22860205507488     -0.06286496301322
  H          -5.08792197266081     -2.67872729354263     -1.05856564198726
  H          -5.06235488665094     -1.09332254511636     -1.87625436956774
  H          -3.56073555302069     -2.04401087076730     -1.72272234610144
