33
Coordinates from ORCA-job 23235 E -656.597891897581
  O           0.16141256240162      0.18824944594236     -0.05419801085292
  O           1.21492568747673      2.17112855983523     -0.17003170719714
  C          -3.59267441717941      0.46157857480685     -0.06365563542708
  C          -4.71701180932616     -0.56910740956354      0.00132131249241
  C          -2.20159083154530     -0.16825783535848     -0.02817122357431
  C          -6.11191429317819      0.05106813853095     -0.03448249271602
  C          -1.10639344276375      0.87399799265486     -0.09276906775663
  C          -7.22922745180897     -0.98670329556227      0.03121582082936
  C           1.25952358120410      0.96551723200768     -0.10027257659491
  C           2.51901775863076      0.17418238354739     -0.05562730457266
  C           3.72891988550218      0.86725590659445     -0.09608699853485
  C           2.52143869255412     -1.21884775391369      0.02417669013717
  C           4.92951848443063      0.17490613115511     -0.05714292148176
  C           3.72508029846376     -1.90877928007675      0.06290546232220
  C           4.92906561677075     -1.21410089989366      0.02238401077922
  H          -3.70102520838425      1.05694311610811     -0.97700780013430
  H          -3.69745724449133      1.16325661686807      0.77126365556681
  H          -4.61236232650040     -1.27196896300460     -0.83304209049116
  H          -4.60951361050227     -1.16486790638986      0.91489594368054
  H          -2.08254239050358     -0.75619396800263      0.88667158799023
  H          -2.08562463079456     -0.86172040743290     -0.86628854502510
  H          -6.21446790849756      0.75365766898489      0.79926468216395
  H          -6.21734886770554      0.64620490545473     -0.94769904799191
  H          -1.15634579440019      1.56848781325876      0.74819981994724
  H          -1.15983496889397      1.46306923943363     -1.01049288993289
  H          -7.16611959686297     -1.57428600026800      0.95061219039777
  H          -8.21402649965422     -0.51640837376957      0.00386690791761
  H          -7.16901398072540     -1.68260790220468     -0.80939987637701
  H           3.70577296423923      1.94647584043623     -0.15792679486725
  H           1.58271761744870     -1.75233980984924      0.05531248879022
  H           5.86617367158424      0.71631767227829     -0.08870819862380
  H           3.72452283719445     -2.98940044259251      0.12474114689439
  H           5.86660361581678     -1.75478799001522      0.05274846224258
