28
Coordinates from ORCA-job 2345 E -691.086551028780
  O           0.06312664636832      0.54681682471652      0.00086707056577
  O          -1.24936956716834      2.37308406113849      0.00277770632063
  C           2.44320613853102      0.53906886263661      0.00107698194238
  C           1.22611756211329      1.41074757709611      0.00201512064189
  C          -2.26917476488431      0.21240689877755      0.00016850806136
  C           3.01329101506611      0.11960290741114      1.20119144674332
  C           3.00946806079505      0.11704770684606     -1.19998902088342
  C          -1.13124711641452      1.17040384575720      0.00143024318874
  C           4.12767346103642     -0.70936594181200      1.20266954274376
  C           4.12378217541881     -0.71195118636966     -1.20326144560287
  C          -3.56333839519871      0.73303345938486      0.00039178361050
  C          -2.07726554066652     -1.16975007795928     -0.00119214465768
  C           4.68453866860780     -1.12699673848044     -0.00073430639455
  C          -4.65614690068279     -0.12018324374014     -0.00075383716546
  C          -3.17378441471758     -2.02048940782142     -0.00232557115261
  C          -4.46253500708229     -1.49797870183575     -0.00211449472513
  H           1.18274832350513      2.05074307107567     -0.87946317511752
  H           1.18266343897082      2.04869945916144      0.88495298136002
  H           2.57981008316877      0.44546440350551      2.13918083786936
  H           2.57300175998965      0.44094428629474     -2.13727446902720
  H           4.56337814636449     -1.02666094205126      2.14144648426767
  H           4.55648519871579     -1.03125756227803     -2.14274625867816
  H          -3.69044359323943      1.80678776393868      0.00146790692988
  H          -1.07327031430938     -1.56840500384597     -0.00133933705471
  H           5.55513912069007     -1.77036645929757     -0.00144797732877
  H          -5.65894663973792      0.28701527015886     -0.00058290016363
  H          -3.02326497664209     -3.09232816036934     -0.00337256300653
  H          -5.31597156859764     -2.16422997203855     -0.00300211328706
