14
Coordinates from ORCA-job 240 E -345.525976328185
  O           2.87748886711586     -0.34655128965240     -0.00023249289456
  C           0.56024958630499      0.21711918413250     -0.00012734501874
  C          -0.34088496749435      1.28111943476028     -0.00009066610689
  C           0.08566326752139     -1.09708328904512     -0.00007706095040
  C          -1.70800048895680      1.03938256498370     -0.00000438670097
  C          -1.27760337352044     -1.33762419639108      0.00000421500445
  C          -2.17457974891170     -0.27003963902113      0.00004152784384
  C           2.01044611419320      0.49496151705916     -0.00022715291631
  H           0.03550216129941      2.29774283283764     -0.00013570602395
  H           0.80193887434701     -1.90807537821579     -0.00011085328204
  H          -2.40707351169428      1.86546235974496      0.00002301873858
  H          -1.64882152491861     -2.35435375853853      0.00003728710381
  H          -3.24009038408729     -0.46210046731128      0.00010405145278
  H           2.27054312880162      1.57436012465708     -0.00031043624959
