18
Coordinates from ORCA-job 24115 E -385.057922621200
  O           0.06532509289071      1.17590658830137     -0.79462630930054
  O          -0.94849262382954     -2.11577915036586     -0.86481110145692
  C           1.44113007863537     -0.69755260118034     -0.15708019819428
  C           2.66673856980589      0.17069979620196     -0.41545701760515
  C           1.29623662543645     -1.05971643337731      1.33397708677595
  C           0.17070267355846     -0.01344650771872     -0.60646599300864
  C          -1.07459296902779     -0.91484990408373     -0.82661814786385
  C          -2.38309806696730     -0.20207263034266     -1.00989199270647
  H           1.50970289629679     -1.63523395517530     -0.71463438019087
  H           2.59893193298520      1.11222382236544      0.13065645870190
  H           3.56960435409618     -0.35100603231534     -0.09405397659702
  H           2.76772674983126      0.41049371645998     -1.47472305271763
  H           1.18950264472778     -0.15706386280238      1.93953673510201
  H           0.43606227741800     -1.70533146030313      1.51056353994183
  H           2.18877169120929     -1.58906118998760      1.67008034160734
  H          -3.17639746547103     -0.92777531635713     -1.17143840259362
  H          -2.59903037388458      0.40974349676465     -0.13077548874782
  H          -2.31581608771116      0.48978862391612     -1.85138110114619
