24
Coordinates from ORCA-job 24310 E -687.157260612148
  O           0.57203029543263      1.39775122506409      0.04046973854635
  O          -0.14479149443180     -2.20695583740555      0.02720166769498
  O           1.08060736096421     -0.28799676073477      1.58871831388558
  O          -2.76311813596052     -1.04504486299187     -0.02120085860726
  O          -2.15430713298550      1.42466459517013     -1.06790446744375
  O           3.22473038218178      0.18283335761663      0.13311138560721
  C          -0.35707221577773     -0.81886901551163     -0.20905907228550
  C           0.84446231364684      0.02953776615023      0.23113750860453
  C          -1.62941670597994     -0.35518961953340      0.49285729079489
  C          -1.85253137343663      1.13796079034634      0.28820915720724
  C          -0.59614516277997      1.88809333897093      0.69338190417737
  C           2.08948653237590     -0.27882939503093     -0.60052573691391
  H           0.20295142930167     -2.27825774729765      0.92777290350562
  H           2.00768216236506     -0.05834136378698      1.75881835942136
  H          -2.51405526188192     -1.97389833546835     -0.11264836200221
  H          -2.80819979724883      0.77033444145376     -1.34794377470900
  H           4.00190057863446     -0.31088453001679     -0.14314704739093
  H          -0.48599943080970     -0.70244955958380     -1.28561934267907
  H          -1.52586620301685     -0.54804331081079      1.56773389768429
  H          -2.67574260675600      1.46563422106153      0.93811453508509
  H          -0.47400953931921      1.82966904077627      1.77938438715663
  H          -0.67766525101165      2.93315616532743      0.40035734715432
  H           2.00561588398742      0.23932619146803     -1.55825402604609
  H           2.13986237250630     -1.35697079523287     -0.76435370844775
