92
Coordinates from ORCA-job 25078000 E -1869.263902849940
  O          -5.74538336116560      0.68272816146223     -0.39081224653240
  O           5.21247305026483      0.90082732498922      1.03878043859426
  O           6.65304068850193     -0.84083900609711      0.69855894773532
  O           7.11635742702791      2.71249976381508     -0.06482630534688
  O           9.79312890329896      1.69633160226999     -0.09078518621587
  O           9.97860406962730     -1.05441905541891     -0.77103758629085
  O           6.75317428750314     -3.59305072280192      0.28008881373366
  N          -8.72895100437348     -1.19237947736234      0.50762352358753
  C          -0.30611499841524     -0.26923093590379      0.16687532116394
  C          -0.93026805420286      0.21512566342208     -1.14323677452711
  C          -2.23877675706451     -0.57316565973137     -1.20673634061172
  C           0.92817313810234      0.54902388894812      0.58614533938606
  C          -5.10906079931882     -0.64284911525340     -0.41748143962244
  C          -2.70498060193357     -0.56605161556425      0.23268432528804
  C          -1.49652858198852     -0.37854750555029      1.13687868866336
  C          -3.32956156381944     -0.07446503703288     -2.13466889988473
  C          -4.59363637514997     -0.87233002152850     -1.84165037604751
  C          -3.98559283037294     -0.57131379661146      0.60743206073814
  C          -6.24356586669562     -1.66749203510874     -0.00081239871380
  C           0.05010999914221      0.04474715250272     -2.29017062133812
  C           1.83128607037230      0.72237199156667     -0.63604941584729
  C          -7.35523483102304     -0.72207914402305      0.47492101436263
  C           1.69785768501610     -0.24215230998633      1.67092104709383
  C          -7.14540373156094      0.49033290211140     -0.41659541926232
  C           1.43183478369716      0.47552062650371     -1.88488369091213
  C           0.54278479221546      1.93809359987096      1.13028369232871
  C           3.23575094057698      1.19736549097685     -0.35737776011699
  C           3.09428605347466      0.29643907235443      1.97569814378470
  C           3.92479729053180      0.34806440749083      0.70841347876196
  C          -7.95938312760294      1.66202644929548      0.08159470682979
  C          -4.38810608534768     -0.39336323332992      2.04543533488016
  C          -6.72465220537253     -2.63678551347710     -1.07907195570774
  C          -9.43721503199855      1.23071081759576      0.14616488029873
  C          -9.60361085674143     -0.09059320678502      0.92738226281309
  C         -10.31687472113802      2.32635698511215      0.74083404504832
  C           6.26492202372257      0.45320786503305      0.26053695483396
  C           7.42792496728380      1.42092883719081      0.43771118707882
  C           8.63170212975755      0.91225847521477     -0.33279015838746
  C           7.71705290676541     -1.39601296686715     -0.08103517942653
  C           8.96032893838902     -0.52011032778020      0.05853334297698
  C           7.92650210069619     -2.81055316539791      0.42302993191762
  H           6.33971758092853      3.02966542814531      0.41169165047809
  H           9.57576252740340      2.61374096968067     -0.29557703854416
  H          10.69681573419447     -0.40971609286694     -0.79183993982890
  H           6.04182949952835     -3.11311384421230      0.72132741445441
  H          -9.01103585045493     -1.51782094179839     -0.41065895519809
  H           0.05547365483545     -1.28640608151405     -0.02898697685053
  H          -1.18113043342065      1.27776189283606     -1.04497850484320
  H          -1.98274655640563     -1.60527262726350     -1.49409270664231
  H          -1.37513839667072     -1.19692531729390      1.84969890035309
  H          -1.61328644679299      0.53387557520542      1.72500499360598
  H          -3.51175549333970      0.98850308859855     -1.95460162320961
  H          -3.04053791333195     -0.18957588284304     -3.18252745016516
  H          -4.37121561489728     -1.93252645282226     -1.98582789328500
  H          -5.39144549378238     -0.61569710777600     -2.54011656209664
  H          -5.88203594486224     -2.27080451937611      0.83091067990614
  H           0.07229481012413     -1.00677966586267     -2.60721190295520
  H          -0.26699111124324      0.61227017337016     -3.17052147016835
  H          -7.11791464935852     -0.40192082510724      1.49383159591254
  H           1.10039917360956     -0.26558567721914      2.58544571755080
  H           1.79135215861565     -1.27939272432849      1.33348697550528
  H          -7.47343165786182      0.24472320073573     -1.44161762529882
  H           2.15194195100123      0.60273465984644     -2.68848499821468
  H           0.02760079731016      1.85706456491774      2.08838345876800
  H           1.42133127330039      2.56195779857375      1.28815502790209
  H          -0.10926876228411      2.46550000377090      0.43413730905125
  H           3.81679822725356      1.19912578527087     -1.28107964324825
  H           3.22381331913382      2.22883333496660      0.01203359155099
  H           3.04423714532644      1.30110501347471      2.40410039635318
  H           3.59459484520502     -0.33658563101267      2.71104668211946
  H           4.07016795331843     -0.66990363654841      0.33255086023979
  H          -7.60699523359453      1.94344082965339      1.07989671290220
  H          -7.84510245459399      2.53735523642985     -0.56290161641894
  H          -3.52162330552051     -0.26380068865358      2.69003705924736
  H          -5.02370653676646      0.48825583918914      2.15196095417087
  H          -4.95244039497143     -1.24740218519429      2.42880402452465
  H          -7.52375545409644     -3.25729006574672     -0.67002836667431
  H          -7.10905460357061     -2.12977773648863     -1.96599050016452
  H          -5.92838222505662     -3.30660613058699     -1.40186318235184
  H          -9.77107280698917      1.04303406709884     -0.88244648418034
  H         -10.64028814398595     -0.42770617003440      0.85956595213800
  H          -9.40269334121697      0.10230235718281      1.98757681405499
  H         -10.02575424604088      2.53942112933461      1.77300685425844
  H         -10.22826595876272      3.25461447937623      0.17262875781972
  H         -11.36966788101212      2.03467021685616      0.74475217546425
  H           5.98065016794675      0.40020349497465     -0.80261192989494
  H           7.66584095229196      1.46432953038454      1.50692598402761
  H           8.38897742710022      0.92974889442908     -1.40423135724811
  H           7.41842944923823     -1.43318019691581     -1.13750669157482
  H           9.27866028825719     -0.52636664896832      1.10965284365892
  H           8.24923987155928     -2.76985174360427      1.47150147796206
  H           8.70989224272048     -3.29029719637876     -0.16082517203107
