24
Coordinates from ORCA-job 2519 E -680.308025450944
  O           0.41628573189405      2.57860339112436      0.01031879769903
  O          -3.04945002757127     -0.43746675180223      0.09355629207128
  N          -0.94717985627863     -1.29129768045778      0.02085091834236
  N           2.25299526158235      0.13340271868440     -0.06684573462884
  N          -1.32355085583246      1.05837237193933      0.05201161927964
  N           1.40119444087733     -1.93615934333376     -0.05751939138132
  C           0.87710794704013      0.25954625609545     -0.02300382945096
  C           0.39612916686415     -1.02983633235341     -0.01874042556166
  C           0.04164076970685      1.41546902030894      0.01245612629754
  C          -1.84936375488698     -0.24132874044685      0.05771592174278
  C           2.49912652279476     -1.19322041905027     -0.08552151615544
  C          -1.46837028063160     -2.65321744697998      0.02582694180625
  C           3.22481982359077      1.21286887384354     -0.08841884600464
  C          -2.31578421039559      2.13214569172505      0.09172700673211
  H           3.50383322022862     -1.58373183248093     -0.11998365804526
  H          -2.05575955299800     -2.82553038273021      0.92661823880882
  H          -2.11098193255480     -2.81075522411643     -0.83926503992493
  H          -0.62116956274797     -3.33131385614248     -0.00636756990664
  H           3.12173720820935      1.82961499098282      0.80243744524993
  H           4.22104977443503      0.77631156396841     -0.12219211246693
  H           3.06774109043208      1.84287611108748     -0.96195937232743
  H          -2.92047922684835      2.04680881631264      0.99309805260800
  H          -1.77716886447827      3.07338538881724      0.08218423009890
  H          -2.97594483243156      2.06068981500468     -0.77111509488256
