28
Coordinates from ORCA-job 25202091 E -1593.679235073500
  S          -0.13610021647505     -2.84532176893697     -0.70036095805190
  S          -3.73099290612662      0.62536990106794      0.12257690782463
  O          -3.05137789022553     -0.75955840921886      0.65218501331016
  O          -4.73546719641912      0.77101684194288      1.33331328761541
  O          -4.44000253669905      0.34499240039949     -1.08165860334494
  O          -2.80219601831512      1.69294152281728      0.22581717665287
  N           1.57770702047767      2.08701135392156     -0.30847301129792
  N          -2.14446967056105     -1.27373971899704     -0.33148711763934
  C           0.71717923172062      0.21176032966120      0.56567781848583
  C           2.09962676382853     -0.02386541118069      0.25820688853956
  C           2.61175316941472      1.17968903225919     -0.28311616552734
  C          -0.25216980642335     -0.76729588390796      1.16320050644750
  C           0.44384177842282      1.50230943753743      0.20229035348407
  C           2.95454582977126     -1.12296796652884      0.39382394137205
  C           3.93963391630147      1.31135882653802     -0.67996391253991
  C          -0.88618092398778     -1.62133805270473      0.08926302752257
  C           4.27476708909072     -0.99551399896800      0.00307517001040
  C           4.76304902936714      0.20927924432516     -0.52896785193753
  H          -5.52745710789237      0.23356706482614      1.17124053463317
  H           1.64004350305779      3.03363678691177     -0.63581565856785
  H          -2.62559478274771     -1.95821488746655     -0.90385570914248
  H           0.27051305993541     -1.43796838658627      1.84491362702424
  H          -1.01710622486547     -0.24038306715129      1.73006270385128
  H          -0.48309853674124      2.04559455271327      0.26474706533770
  H           2.58116869277148     -2.06313315425311      0.77645844356113
  H           4.31572063050586      2.23974333143516     -1.09169672917237
  H           4.94527774238856     -1.83960855059162      0.10001314164153
  H           5.80083036042540      0.27572963013546     -0.82914189009254
