37
CID 252471; DFT optimized geometry from ORCA OUT; energy -1107.446422101399 Eh
O          0.627211         2.011125        -0.285346
O          1.837495        -2.660134         0.040296
O          5.163325         0.577205        -0.425799
O          4.421816        -1.942935        -0.117448
O         -0.740565        -1.739582         0.495802
O         -6.846920         0.034831        -0.115669
C          1.117094        -0.340181        -0.020200
C          1.524060         0.982673        -0.216583
C         -1.219657         0.509053        -0.055788
C         -0.317925        -0.640163         0.166511
C          2.129890        -1.336420        -0.010562
C         -2.686432         0.343518        -0.063044
C          2.858468         1.356981        -0.352076
C          3.463600        -0.979708        -0.140604
C          3.823457         0.371635        -0.307635
C         -0.688681         1.735549        -0.226322
C         -3.468795         1.016052        -1.008780
C         -3.341496        -0.464361         0.871138
C         -4.850479         0.912864        -1.016209
C         -4.723606        -0.575465         0.870955
C         -5.484184         0.113996        -0.069994
C          1.769081        -3.235138         1.348116
C          5.629098         1.906047        -0.623102
H          5.277199        -1.508547        -0.237417
H         -7.157116        -0.564256         0.572749
H          3.096247         2.399716        -0.493003
H         -1.278399         2.636623        -0.316419
H         -2.984336         1.613290        -1.771264
H         -2.762540        -1.014202         1.596523
H         -5.446670         1.428759        -1.756863
H         -5.213670        -1.205355         1.605806
H          0.946393        -2.794580         1.912037
H          1.579643        -4.295833         1.200009
H          2.718369        -3.101375         1.873577
H          6.711441         1.838145        -0.693813
H          5.225939         2.326779        -1.547573
H          5.355297         2.544004         0.220889
