40
CID 25322860; DFT optimized geometry from ORCA OUT; energy -1162.33425507794 Eh
O          1.131909         0.435484         1.029394
O          1.186982        -2.453080        -1.962747
O         -0.943129         2.155868         1.535054
O          3.315339         0.118477         1.529267
O         -3.520035         1.394155         1.100701
O          3.598304         2.333417         0.311763
O         -3.749347         2.012086        -1.594194
O          2.431329         1.669646        -1.461848
O         -2.410270        -2.518412        -0.609421
N         -0.425817        -1.960667         0.345410
C         -0.103453        -0.893324        -0.591965
C          0.015178         0.460374         0.104553
C          1.208911        -1.187051        -1.335915
C          2.408392        -1.071497        -0.386929
C         -1.177336         0.873218         0.955359
C          2.416689         0.203253         0.453720
C         -2.498960         0.971654         0.194380
C          2.828260         1.465356        -0.348407
C         -2.465415         1.914171        -1.007666
C         -1.619961        -2.641932         0.304124
C         -1.883113        -3.549814         1.485260
H          0.781382        -3.081837        -1.351192
H         -0.098634         2.122011         1.998815
H          2.995102        -0.540545         2.157362
H         -3.156772         2.136773         1.603307
H          3.830122         1.941517         1.171995
H         -4.378247         2.089441        -0.864118
H          0.092764        -1.990747         1.207751
H         -0.914606        -0.872118        -1.318012
H          0.203599         1.228778        -0.646874
H          1.314140        -0.451882        -2.131886
H          2.385651        -1.915780         0.310538
H          3.336460        -1.149876        -0.952336
H         -1.311551         0.134689         1.754326
H         -2.800901        -0.020296        -0.144182
H         -1.796818         1.530206        -1.781112
H         -2.093344         2.897638        -0.695240
H         -0.988156        -3.773224         2.067005
H         -2.614039        -3.065165         2.135865
H         -2.324993        -4.476725         1.124509
