21
Coordinates from ORCA-job 25403 E -275.100381878975
  C          -0.17802039940071     -0.46252810648267     -0.20082192292893
  C          -1.50100785170420      0.18318750304899     -0.55827082875599
  C           0.95684892570862      0.23520654455272     -0.04964063602019
  C          -0.29167999502314     -1.95234657021710     -0.00686473631079
  C          -2.30787055340851      0.60605224236205      0.67568896287956
  C           1.03726436313797      1.73202238155339     -0.20599961115270
  C           2.29052018117569     -0.37084647430897      0.30020758727898
  H          -1.35615237051462      1.04615028025550     -1.20868125819205
  H          -2.09121785821774     -0.53314207053842     -1.13792071153482
  H          -1.13899139202142     -2.18448213482138      0.64556051811899
  H          -0.49271294247970     -2.44975616944783     -0.96179735468396
  H           0.59118520992473     -2.41072851272833      0.43033975560801
  H          -2.47520225749540     -0.23951182092327      1.34625667774061
  H          -1.77588305225681      1.37366028161804      1.24058555049724
  H          -3.28408369337848      1.00591726726742      0.39216983415210
  H           1.44212385646959      2.18415540220492      0.70538504916383
  H           1.72662382332636      1.99941397102834     -1.01402414773215
  H           0.08044339795312      2.20491816783403     -0.40978815243275
  H           2.64418761103148      0.00637156119639      1.26580580617749
  H           2.28366039334844     -1.45618945068538      0.34681577932216
  H           3.04264460382469     -0.07587329276843     -0.43887916119467
