49
Coordinates from ORCA-job 2543 E -966.217390058314
  O          -0.54991125763832     -1.80613941317542     -0.66684958494346
  O          -0.64489136197120      2.80247279478302      0.60448938138355
  C          -1.72998490152938     -2.10324749912481      0.12560824377103
  C          -2.69115689270463     -0.93673359699999      0.02877070664498
  C          -2.16250098688112      0.36491759523088     -0.02172704347924
  C          -0.70069071669884      0.51192664471553     -0.06657086042421
  C           0.05594869474243     -0.61331887991157     -0.43681894013921
  C          -2.26021713512673     -3.39113054150717     -0.48731965595554
  C          -1.30233026901877     -2.33031938143521      1.57958560115124
  C           2.12045010395199      0.62136132216722     -0.41306318667842
  C           3.61757661385977      0.67511151665203     -0.55116073869506
  C           1.42967810921357     -0.56290327598880     -0.62851111603222
  C          -4.06782206642267     -1.11642132543294      0.02788073883048
  C           0.02730081979750      1.68818357767424      0.17963617601472
  C          -3.05139577169931      1.44350371397495     -0.09848371337024
  C           4.33640697139443      0.30594420281819      0.75565734310824
  C           1.40517724714761      1.73886530502338      0.00630816272822
  C          -4.43002330408467      1.26424111667504     -0.09627099849980
  C           5.86054441745430      0.40589967898368      0.67918188448177
  C          -4.93168108868190     -0.03249877799309     -0.02813589076596
  C           6.51685750789633     -0.59152052346819     -0.27523588178780
  C          -5.35605392930707      2.44991886425222     -0.14410642343145
  C           8.04130649842430     -0.51420093508127     -0.25328181260822
  H          -0.00646104560266      3.50929332074955      0.75103160418728
  H          -3.08780507597942     -3.79277560611417      0.09581440789505
  H          -2.59647839182775     -3.22102874612514     -1.50972343097882
  H          -1.46145398351793     -4.13263135727893     -0.50004420913499
  H          -0.86199647061037     -1.42684528403281      2.00119416463873
  H          -2.17119207486284     -2.59712556458548      2.18223957685357
  H          -0.56993516282217     -3.13763790200980      1.63418950609984
  H           3.92855969598407     -0.00341127886967     -1.34771522608082
  H           3.92479639678993      1.68098704603745     -0.85305898050744
  H           1.94251940270202     -1.46590679127120     -0.93235298145334
  H          -4.48159555674830     -2.11459014511359      0.06816157034714
  H          -2.65789082121402      2.44454425490679     -0.16676914759917
  H           3.96966685788667      0.96292236103125      1.54948908538701
  H           4.04771614071008     -0.71002590704092      1.04353043701033
  H           1.92697592557515      2.67062036885807      0.20186586541788
  H           6.14359840426346      1.42423559549560      0.38732476988677
  H           6.27233778701400      0.25327193951868      1.68239851609019
  H          -6.00250475558919     -0.19876367623902     -0.02771008904254
  H           6.19649336783651     -1.60450141761585     -0.00812834431329
  H           6.16315351096976     -0.41923035623041     -1.29547036634802
  H          -5.66558938323726      2.74477203093225      0.86290320584528
  H          -4.87179114593655      3.31241557529443     -0.60325969951008
  H          -6.26151911005851      2.22476056675415     -0.71012617184674
  H           8.43105024614962     -0.72153219777675      0.74655678415656
  H           8.48871977226934     -1.23404561430160     -0.94144421105795
  H           8.38774616773869      0.48154060219516     -0.54175302724583
