29
CID 25765999; DFT optimized geometry from ORCA OUT; energy -612.512943584913 Eh
O         -0.447890         2.210177         1.717026
O          2.204901        -2.133772         0.027306
N          0.409126        -1.227238         1.051498
N          1.378637         1.302003         0.752183
C         -1.825326        -0.180487         0.626360
C         -0.493936        -0.146470         1.415030
C         -1.602837         0.047329        -0.872895
C          2.142207         0.240330         0.112410
C          0.147370         1.228708         1.306054
C         -2.588892        -1.472309         0.920095
C          1.584120        -1.148868         0.388566
C         -2.893293         0.186682        -1.677467
C          2.282857         0.464761        -1.395181
H          0.091177        -2.172506         1.209798
H          1.747432         2.240882         0.691753
H         -2.401823         0.661243         1.019092
H         -0.741261        -0.253578         2.475257
H         -1.011947         0.957896        -1.004837
H         -1.005722        -0.775543        -1.278426
H          3.142817         0.226106         0.554112
H         -2.678396        -1.641491         1.995801
H         -3.598164        -1.432722         0.512043
H         -2.096536        -2.342031         0.475971
H         -3.521917         0.983498        -1.272822
H         -2.674803         0.431796        -2.718225
H         -3.477178        -0.734837        -1.675254
H          2.766267         1.423842        -1.589769
H          2.889709        -0.328920        -1.827745
H          1.304455         0.467775        -1.876479
