53
Coordinates from ORCA-job 25763830 E -1267.065107332368
  O          -0.61834197429646      1.34747471574459     -0.53146947877904
  O           1.38562983721103     -0.28451584129150     -3.10552112979282
  O          -6.93839645123791      0.24047368723904      2.44139622061066
  O           7.38453349594552     -1.34689123011289      1.27121615193159
  O          -8.62208707343445     -0.80932504531998      0.72150473146617
  O           7.61999669219918      0.97781176922806      2.47137585015983
  C          -1.09197971641739      0.28058507172987     -1.35996174198332
  C          -2.49739454317736     -0.15764228085478     -0.96490913389273
  C          -0.10048751786401     -0.89160554197875     -1.35765583279042
  C          -3.54135540603893      0.95894880700649     -1.09298169582133
  C           1.24548664593296     -0.45543539919084     -1.91553033673512
  C           2.35711482100009     -0.22055475937038     -0.92123816322173
  C          -4.91024204843302      0.51774718934645     -0.64643192059277
  C           3.65105020133005      0.31160896536520     -1.53449829300343
  C           4.72032084929026      0.52567968461273     -0.49549675933753
  C          -5.27559081280640      0.61555808086147      0.70039977175375
  C          -5.81597456891035     -0.03589602994214     -1.53833775477966
  C           5.56323504516156     -0.52737034461710     -0.12464628532045
  C          -6.51139036573269      0.17235170632912      1.15361613607441
  C           4.86423231080777      1.74565853243450      0.14765275301049
  C          -7.05875077909484     -0.48512502311934     -1.09712277522267
  C          -7.41715906767970     -0.38940392022003      0.23612494743935
  C           6.52725437628779     -0.37484520278284      0.86371074073157
  C           5.82635485917826      1.91176866239616      1.14159440228963
  C           6.65799842843406      0.86809594802310      1.50817850261465
  C          -6.06868260053734      0.80794079604065      3.40235611172794
  C           7.30243229869796     -2.61258237025254      0.64381166702142
  H          -0.69729919973934      1.07262787011315      0.39027120861057
  H          -9.14612984498023     -1.16179231711778     -0.00632893980432
  H           7.61218370372015      1.87678510762041      2.81825926250064
  H          -1.10978904486213      0.70523078400870     -2.36634957902689
  H          -2.79678741934138     -1.00507848159838     -1.58753882656668
  H          -2.48055245487094     -0.52903005976996      0.06747307151558
  H          -0.00387120076593     -1.28565629124091     -0.34164737697650
  H          -0.48591612953592     -1.68448299772324     -2.00151424874859
  H          -3.21409138379955      1.82164708710231     -0.50979228199903
  H          -3.58130625451098      1.28465272353734     -2.13581313303491
  H           1.97207660413674      0.47126732542206     -0.16430978458137
  H           2.53603202487473     -1.16147125292230     -0.38669032388283
  H           3.99587426646950     -0.38590821258697     -2.30001727876866
  H           3.43498332589484      1.24789153975667     -2.05127337061524
  H          -4.57667597418496      1.05513761010884      1.39828862062392
  H          -5.56159029803297     -0.11815706311633     -2.58780391272679
  H           5.46130787990421     -1.47758725464418     -0.63010532255185
  H           4.22866284336477      2.57914212910074     -0.12453230657892
  H          -7.76342510980707     -0.91188640048359     -1.80314361981590
  H           5.93616582809545      2.87168171077814      1.63538801083437
  H          -6.60176225924447      0.76734292333483      4.34931645434380
  H          -5.13766326737187      0.23805776107795      3.48573006229896
  H          -5.83234838708329      1.84951537641949      3.16303025865648
  H           6.32182676307538     -3.07376339987744      0.79913051273557
  H           7.49915010770370     -2.54053054860831     -0.43042829228507
  H           8.06803694507590     -3.22797029599556      1.11048145028523
