43
CID 25791637; DFT optimized geometry from ORCA OUT; energy -1297.430240712165 Eh
O          1.766146         1.153797        -0.961555
O          1.049454        -1.075432        -0.949937
O          3.310356        -1.696246         0.643764
O          4.102347         0.633191         1.837767
O          4.019580         0.146494        -2.476998
O          0.672959         2.970706         1.026181
O          0.173028        -2.422184         1.152413
O         -3.102457         1.248880        -1.312635
O         -5.016497         2.354157        -1.553702
C          3.845212        -0.666598        -0.182361
C          3.674641         0.702511         0.490229
C          3.255093        -0.665869        -1.599885
C          2.220338         1.175980         0.403045
C          1.848627        -0.067023        -1.600253
C          2.036752         2.594270         0.907725
C         -0.226117        -0.798296        -0.568782
C         -0.692439        -1.557059         0.524501
C         -1.039830         0.145954        -1.171470
C         -2.332165         0.318747        -0.690737
C         -2.821928        -0.426290         0.390659
C         -1.974030        -1.369858         0.989515
C         -4.163117        -0.163657         0.822308
C         -4.919647         0.760178         0.199716
C         -4.414843         1.523506        -0.930050
C          0.250769        -3.724181         0.557967
H          2.345613        -1.727319         0.545130
H          3.864473        -0.252424         2.150780
H          4.889188        -0.251427        -2.591442
H          0.277781         2.479193         1.754379
H          4.914966        -0.883160        -0.249199
H          4.309435         1.428269        -0.022683
H          3.190012        -1.697211        -1.961956
H          1.593232         0.505991         1.005598
H          1.498572         0.094676        -2.621000
H          2.479077         3.284457         0.187835
H          2.569274         2.692608         1.857891
H         -0.690654         0.770825        -1.978647
H         -2.316262        -1.948885         1.837912
H         -4.558936        -0.724099         1.661557
H         -5.933386         0.982101         0.498751
H          0.986876        -4.281010         1.133495
H         -0.718879        -4.225889         0.611816
H          0.571602        -3.657645        -0.484055
