81
Coordinates from ORCA-job 259846 E -1248.273326116807
  O          -5.86030298705096      1.56547009081929      0.80635463428304
  C          -0.45262775989512     -1.01457259668502      0.27543095852875
  C           0.98258515459623     -1.01200866158965     -0.42472199749615
  C          -1.08286273287083      0.39996155069365      0.05705870044035
  C           1.86411066267503      0.05415668085412      0.30884246703876
  C          -2.60820676311930      0.57247021132366      0.37776600265502
  C           3.31675759529807     -0.02666756968363     -0.15460413009414
  C           3.93025396477343     -1.42499556425297      0.08899613873657
  C          -3.37158986597792     -0.56222630019732     -0.35908741809140
  C           1.64129443583155     -2.41671662056374     -0.35612008707134
  C          -1.36652898294823     -2.08724553465361     -0.34953320518852
  C          -0.20391118542905      1.48757958104830      0.68830621116706
  C           1.24444169086259      1.44897898804359      0.19706457749203
  C           3.13401145726691     -2.44698994975312     -0.71826575064120
  C          -2.83616262688631     -1.93789298672452      0.03459756603290
  C           4.36286194098472      0.94658862277650      0.42921610332854
  C          -4.93443194450855     -0.47389406652577     -0.35263234650440
  C          -3.06431985588074      1.94071384596134     -0.23086807500324
  C          -0.31284536726311     -1.35940703909576      1.77692447523626
  C           0.88561778697097     -0.67145196816052     -1.92929597173825
  C           5.37086592804964     -1.18789483163377     -0.38188164932310
  C           5.72324425369891      0.21445035881842      0.15900758350169
  C          -2.88410136520667      0.59292285587341      1.89074055082377
  C          -5.41794476862901      1.01106322398511     -0.43771815293849
  C          -4.34640805788370      1.87880405751861     -1.07486304908253
  C           3.95847763973601     -1.82890848534732      1.57328382865483
  C           4.37449510087542      2.35283487799850     -0.11808002056187
  C          -5.43560867844979     -1.16170467381091     -1.63657321804158
  C          -5.58949664819438     -1.18216766079805      0.83953754975251
  C           4.32922842588966      2.52148865298690     -1.61144554075183
  C           4.46853146091318      3.40434658411586      0.69317286256065
  H          -5.14141815444470      2.06500300500159      1.20369973958863
  H          -1.05099485958828      0.56122442821680     -1.02232094988176
  H           1.86328176034321     -0.20004189532386      1.37076680080719
  H           3.33618188185969      0.11417182230759     -1.23912161411971
  H          -3.08837173265380     -0.43391404064453     -1.41129101945603
  H           1.52897746399516     -2.84353754904516      0.63837790901584
  H           1.10465767821909     -3.08883827587717     -1.02882685830871
  H          -1.30799299440079     -2.04315306150984     -1.43833088822147
  H          -1.01165540235226     -3.07915534950741     -0.06031359158337
  H          -0.62111036008428      2.47454726310701      0.48114033480084
  H          -0.20756645972155      1.38954147289004      1.77525455305098
  H           1.83764505005573      2.15764915795692      0.77453311134642
  H           1.29102353430364      1.79822936376821     -0.83753488395940
  H           3.27182513270922     -2.24014188315265     -1.78314313862780
  H           3.52099900405946     -3.45697728819380     -0.55081997624407
  H          -2.97993639405332     -2.11332646264265      1.10161859351337
  H          -3.40569251538647     -2.71975335564200     -0.47157435884293
  H           4.21123029417279      1.01916223352064      1.50837386742300
  H          -3.18552829864517      2.67228395839861      0.57357127235916
  H          -2.27625808278055      2.35019621504942     -0.86418130064353
  H          -0.02410327915948     -0.51213680260884      2.39242634777755
  H          -1.24851979736107     -1.73999463023136      2.17725522959411
  H           0.42532921668726     -2.14188916312829      1.93789465015515
  H           0.54297870517753      0.33888908141267     -2.13177800990109
  H           1.85713510472852     -0.77377446963089     -2.40842249264078
  H           0.21387741848280     -1.35649908951569     -2.44420847136048
  H           6.06308305030214     -1.95895175910025     -0.03774700771213
  H           5.39914339179305     -1.19048592220231     -1.47506014838680
  H           6.33677488035930      0.77288276809834     -0.54762160613209
  H           6.29813008033776      0.15568216640940      1.08332603045296
  H          -2.27470331872578      1.35401924478683      2.37885388623641
  H          -3.92487865556466      0.82511656100270      2.10175971039939
  H          -2.67191531626069     -0.35555534728022      2.37406358186885
  H          -6.31555432798520      1.02283725749254     -1.06037531432815
  H          -4.73429245775096      2.88764548778820     -1.23496035149924
  H          -4.11712791792836      1.47591870956519     -2.06372593769982
  H           4.53507979897713     -1.12848582347189      2.17750046958129
  H           2.96559634157466     -1.89674645902932      2.01401210582292
  H           4.42892287749232     -2.81010304843532      1.67097756893853
  H          -6.52659138315526     -1.20672512906186     -1.64687555616746
  H          -5.11295736999938     -0.62159745297953     -2.53000533800812
  H          -5.06096784025229     -2.18303129269640     -1.71463958552939
  H          -5.23242868759506     -0.81432304228209      1.79729270150669
  H          -6.66916729053659     -1.02639762884231      0.81756093157772
  H          -5.40602957685777     -2.25640826217659      0.79479031924850
  H           5.06165671605684      1.88103679553917     -2.11039704071052
  H           3.34967575980717      2.24337501602761     -2.00791846940733
  H           4.52751689202628      3.55411678300931     -1.89703240815611
  H           4.52428718419606      4.41645431729997      0.31090269700542
  H           4.49004934729826      3.28592770222189      1.77013830775266
