63
CID 259803; DFT optimized geometry from ORCA OUT; energy -1310.970524005224 Eh
O         -1.329963        -1.736411        -0.006306
O          1.735488         2.965707         0.073029
O          7.331120        -0.917953        -0.292787
O         -5.494646        -1.106195        -0.483438
O         -7.425360        -0.482057        -1.418118
C         -0.568354        -0.625602         0.511464
C          0.885613        -0.752360         0.011565
C          1.760349         0.500513         0.230166
C         -1.293748         0.655541         0.033181
C          3.190882         0.355012        -0.432042
C          3.579936        -1.149793        -0.559613
C          1.014072         1.764672        -0.221228
C         -0.388986         1.856869         0.356167
C         -2.556646         0.764405         0.971535
C          1.550408        -2.018416         0.605579
C         -0.764027        -0.583364         2.035036
C          3.076406        -1.926686         0.652056
C         -2.206620        -0.094196         2.219054
C          4.208840         1.081371         0.480409
C          5.072825        -1.371339        -0.842108
C         -1.631779         0.637601        -1.456194
C          3.222893         0.966400        -1.841066
C          5.672806         0.843869         0.114510
C          5.991654        -0.643486         0.121458
C         -3.889233         0.440712         0.339118
C         -4.765394         1.490275        -0.082136
C         -4.319018        -0.816721         0.099463
C         -5.954228         1.235434        -0.675751
C         -6.397972        -0.117667        -0.911767
H         -0.925988        -2.551047         0.311811
H          1.760766         3.076231         1.030867
H          7.933961        -0.425591         0.275225
H          0.799780        -0.897370        -1.069274
H          1.918282         0.603716         1.311416
H          3.047819        -1.550406        -1.429795
H          0.939758         1.764311        -1.306788
H         -0.857625         2.767755        -0.024059
H         -0.309824         1.982520         1.441381
H         -2.627911         1.811175         1.273135
H          1.174878        -2.206435         1.612569
H          1.268652        -2.882594        -0.002808
H         -0.610973        -1.561223         2.490884
H         -0.045106         0.094680         2.496500
H          3.509611        -2.929146         0.674570
H          3.395975        -1.436177         1.574796
H         -2.333910         0.472095         3.141706
H         -2.879127        -0.947044         2.282298
H          3.987159         2.147640         0.466651
H          4.055709         0.745771         1.511757
H          5.290594        -2.441598        -0.814569
H          5.324229        -1.032128        -1.849839
H         -2.159834         1.551765        -1.735431
H         -0.732422         0.576916        -2.068791
H         -2.260840        -0.210226        -1.711480
H          3.093208         2.047152        -1.816714
H          4.173220         0.759054        -2.330302
H          2.441270         0.535909        -2.471770
H          5.903121         1.245571        -0.875786
H          6.316458         1.370798         0.827111
H          5.840187        -1.033701         1.138464
H         -4.459721         2.517650         0.084774
H         -3.747216        -1.704404         0.323407
H         -6.624635         2.020372        -0.994097
