13
Coordinates from ORCA-job 259994 E -269.550169609752
  O          -0.72466531516470     -1.34564922312829      0.32640656068659
  O           1.84231797349420     -0.25122738724818      0.10430124228566
  C          -0.54641180986249      0.05770566573918      0.47018597636520
  C           0.69392581749887      0.50125530804797     -0.29370245376041
  C          -1.80321586177452      0.74809435381512     -0.02219515173375
  H           0.15406445246654     -1.74497649466856      0.38258994815583
  H           2.11682218017076      0.04433725990328      0.97980733036261
  H          -0.39574855094350      0.29986083988897      1.53586267283475
  H           0.86071292727119      1.57658969584942     -0.16510652940637
  H           0.56093023520986      0.29469669934647     -1.35712044034500
  H          -2.67054887122306      0.38532183556167      0.52954533786605
  H          -1.73353271937880      1.82904645534798      0.11588939208881
  H          -1.96093045776434      0.53692099154497     -1.08166988539997
