49
CID 26195072; DFT optimized geometry from ORCA OUT; energy -1152.533016689702 Eh
O         -3.453381        -2.529158        -1.250535
O          2.984193         2.460036         0.142301
O          5.050974         1.614770         0.722569
O         -3.720192         2.062468         1.302704
O         -2.369368         3.649358        -0.290396
C         -1.471396        -2.695062         0.050861
C         -0.167245        -2.019358         0.526042
C         -2.141597        -1.956631        -1.123401
C          0.958329        -2.044775        -0.527694
C         -1.310330        -4.178183        -0.290985
C          0.317865        -2.596628         1.856153
C          2.100134        -1.118588        -0.192795
C         -2.217903        -0.459755        -0.948663
C          1.884267         0.273716        -0.211199
C          3.351696        -1.614609         0.156849
C         -2.971444         0.085621         0.098217
C         -1.529540         0.394407        -1.793679
C          2.937856         1.085479         0.126628
C          4.181813         0.577178         0.475531
C          4.423001        -0.773962         0.497795
C         -3.020442         1.454646         0.312194
C         -1.567902         1.773658        -1.587832
C         -2.297808         2.312512        -0.543320
C          4.237179         2.789760         0.749189
C         -4.449630         1.243501         2.200101
H         -3.926891        -2.032148        -1.926683
H         -1.817316         4.119415        -0.925570
H         -2.179585        -2.618497         0.883729
H         -0.410320        -0.969534         0.705081
H         -1.573473        -2.161519        -2.039218
H          1.339421        -3.062778        -0.632462
H          0.550257        -1.763134        -1.500871
H         -0.913169        -4.740850         0.554310
H         -2.272079        -4.609981        -0.562501
H         -0.631156        -4.317513        -1.135461
H         -0.474846        -2.565648         2.606989
H          0.642113        -3.634360         1.752706
H          1.165446        -2.025572         2.236675
H          0.923016         0.689193        -0.481953
H          3.505010        -2.686228         0.172151
H         -3.522381        -0.584037         0.741756
H         -0.946714        -0.006363        -2.613453
H          5.393438        -1.170136         0.762579
H         -1.021253         2.437657        -2.248888
H          4.721181         3.580524         0.177450
H          4.067852         3.092867         1.789749
H         -4.923990         1.922265         2.904695
H         -5.217436         0.664518         1.678155
H         -3.788981         0.559256         2.741223
