36
Coordinates from ORCA-job 26213330 E -1069.368908054727
  O           0.43529560835513     -0.67969667089383     -0.12286207220187
  O          -1.06933169746988      3.09826857156591      0.29962478214285
  O          -3.56382069195397      1.99865681590958      0.14244801042157
  O          -5.04827894892108     -0.26115069317427     -0.18639389369660
  O          -3.77946768303695     -2.66770722672826     -0.61314595399217
  O           6.73859213113200     -0.69939448131933     -0.21438701466847
  C           1.22298110217399      0.35387768839451      0.49735386759452
  C           0.82449730664862      1.70365222408490     -0.07721989589461
  C          -1.50525976128106      0.76973103005980      0.02804528283812
  C          -0.65899367430570      1.97033581793456      0.11647708972913
  C           2.67396916016502      0.02371742371033      0.29794853800134
  C          -0.90861258562679     -0.50201166148045     -0.13956880668514
  C          -2.91615980583900      0.82489768866302      0.00797033965906
  C          -1.65378012073137     -1.65174862054101     -0.36080480105451
  C           3.58779863284511      0.22618063845582      1.32887697121127
  C           3.14539232595819     -0.43667911929284     -0.92817759248909
  C          -3.66198168551159     -0.33329061299095     -0.16975563908186
  C          -3.03575300240921     -1.55905368477691     -0.38936685054591
  C           4.94164503326388     -0.01127489374791      1.14781414943254
  C           4.49579535707372     -0.68843237130809     -1.12033089902078
  C           5.39924549133966     -0.47149131469946     -0.08257443753580
  C          -5.64263360327423     -0.42893988312443      1.11522263876103
  H          -4.49699430088307      1.83220024639322     -0.06001269378226
  H          -4.69890285132899     -2.38634646307046     -0.72854355603239
  H           6.92712446480181     -1.01697150266006     -1.10466351463313
  H           0.99352955533370      0.34026742964527      1.56994531889927
  H           1.38893506847931      2.50921736991916      0.39033565148602
  H           1.04550934282379      1.71747553027877     -1.14977056412468
  H          -1.15963568404245     -2.60186050315312     -0.49905992708536
  H           3.23733076717136      0.57505613620236      2.29319920370726
  H           2.44812630979658     -0.61649632481959     -1.73553716168481
  H           5.65110164110504      0.14506062525922      1.94906855994871
  H           4.84892493186375     -1.05592064737205     -2.07775789197553
  H          -5.29510326632033      0.34682889806269      1.80089466131292
  H          -6.71895812387456     -0.34731865559394      0.97684852762422
  H          -5.39327174352041     -1.40866280379216      1.52908057341513
