36
Coordinates from ORCA-job 26257 E -620.879732444949
  O          -0.63376997487065      0.67165615649599     -1.60955010264129
  O           0.64007240077067      0.56565141539151      1.59943982851248
  C          -3.20099233839693      0.63927230356334     -0.41603735494955
  C           3.20728789504897      0.60258222688894      0.40606078484626
  C          -4.46225979617428      0.61663710238010      0.44333879088113
  C           4.46856607956258      0.63151775627258     -0.45311008421944
  C          -1.92685786860551      0.61211723484406      0.41497488904078
  C           1.93315777454434      0.63322720924690     -0.42483218550447
  C          -5.75007243767722      0.64314674713086     -0.37685221825404
  C           5.75637241883152      0.60083583672341      0.36694760244951
  C          -0.66365738514505      0.63438466727185     -0.40183691819986
  C           0.66995684720327      0.60655794977603      0.39183908865455
  C          -7.00888982986373      0.62052486256770      0.48592266076153
  C           7.01520125866448      0.63024200413367     -0.49560659506325
  H          -3.20374949431081     -0.21242580655222     -1.10177627410907
  H          -3.20007671642317      1.52976711757933     -1.05057757064856
  H           3.20725095868362     -0.29164045551529      1.03535139346890
  H           3.20915068169005      1.45022759160372      1.09679934504977
  H          -4.45670034263557     -0.27763574787779      1.07735667157895
  H          -4.45322426965920      1.47234262195457      1.12848631484093
  H           4.46020660159051     -0.21985891293812     -1.14362784095494
  H           4.46235248708983      1.52976557664706     -1.08148317700116
  H          -1.88178292444194      1.45477355585288      1.11420038306589
  H          -1.88485485310966     -0.27069078711240      1.06288442008679
  H           1.89079860120414      1.51943564030387     -1.06813877086440
  H           1.88844219455556     -0.20573129758700     -1.12842800286861
  H          -5.75427692506334      1.53691530689283     -1.00945363685384
  H          -5.75777812130030     -0.21223309700968     -1.06043941012756
  H           5.76327376962974      1.45173674564749      1.05611565244944
  H           5.76137012561703     -0.29704603537960      0.99369386842320
  H          -7.04501337670565     -0.27946485382267      1.10503199914770
  H          -7.04148046489384      1.48309418054480      1.15636768895095
  H          -7.91306446054020      0.64013702544432     -0.12550679258404
  H           7.05056560140475      1.53433636823427     -1.10875176246238
  H           7.91937222035058      0.60737188199293      0.11571421407020
  H           7.04856566337535     -0.22784309159028     -1.17174089897250
