18
Coordinates from ORCA-job 26312 E -385.077763115130
  O          -1.05553461822889      1.05687399572939     -0.02281169789501
  O          -2.48648994967195     -0.66881363226781     -0.05987122456208
  C           1.03147524837106     -0.09736618588299     -0.00099431780169
  C          -0.10818401149173     -1.04534215823915      0.39675406239357
  C           0.34483241184344      1.26046877141407      0.24075573208437
  C           2.28862394285098     -0.25752994446555      0.84706994829969
  C           1.35909435984363     -0.26145727142777     -1.48965842073754
  C          -1.37105609628609     -0.26399927872045      0.08207523856724
  H          -0.11054420118807     -2.00008409933477     -0.12579587159487
  H          -0.10430397177591     -1.25129412250445      1.47132904149229
  H           0.69673757448919      2.04761355864591     -0.42497280648877
  H           0.45758278404867      1.59087066960088      1.27708348594868
  H           2.06405573139878     -0.16243234452538      1.91148278417082
  H           2.74399295845845     -1.23629274338731      0.68389616589071
  H           3.03303580744474      0.49980558194021      0.58909901486949
  H           1.74780026531243     -1.26185998254991     -1.68964861909375
  H           0.47356710309447     -0.11419491411408     -2.11134539028085
  H           2.11419166148680      0.46308610008915     -1.80145912526231
