22
Coordinates from ORCA-job 26334 E -421.514512939398
  N          -0.12725132346213     -1.43097313628295      0.23033989715928
  N           1.12116545990305      1.01837964448888     -0.05490493162417
  C          -0.83095198821511     -0.30294093326813      0.28963810017175
  C          -2.31723520917988     -0.43913468235487      0.47497490363628
  C          -0.19293425154425      0.94342776823929      0.14103840766583
  C          -3.04789287720376     -0.59431718857148     -0.86502491041402
  C           1.82688192796938     -0.11444056168798     -0.11310432738712
  C          -0.94721686430948      2.24137368639227      0.20246412928860
  C           1.18392100283274     -1.33887653806252      0.03073405534687
  C           3.30534162041736     -0.00346288038066     -0.33385702071922
  H          -2.49543231927166     -1.32357642121776      1.08817145414476
  H          -2.71462229835528      0.42189575932366      1.01512346659218
  H          -4.12248844065656     -0.70763070350238     -0.71149358939061
  H          -2.88857713448085      0.27380129426962     -1.50809188722041
  H          -2.68203914616143     -1.47533678936833     -1.39416968945943
  H          -1.38004316287857      2.40076973162277      1.19357223925523
  H          -0.26591094936970      3.06103522365096     -0.01473987874067
  H          -1.76986443378050      2.26420188058604     -0.51494991800419
  H           1.74171663410270     -2.26852994012808     -0.01352006062551
  H           3.76605232066139      0.57681757956733      0.46809088957674
  H           3.77780382030016     -0.98498406252870     -0.37101738482998
  H           3.51044361268237      0.52014126921301     -1.26965294442220
