39
Coordinates from ORCA-job 26690 E -602.220153967133
  O           3.70235887948825      1.58655584334039     -0.09046091208915
  N           4.93099102693000     -0.31403143492125     -0.00899321387785
  C          -1.34299332443971      0.41373304012466     -0.03774422461157
  C          -2.62647120018095     -0.41187072423705     -0.00358734878514
  C          -0.07309573353959     -0.43278392175144     -0.00334076622789
  C          -3.89619875642876      0.43500093925137     -0.03806145850872
  C           1.20501300331536      0.40086000393934     -0.03800163200467
  C          -5.18018378845240     -0.38983538654967     -0.00416010980081
  C           2.46083280156757     -0.46040537688643     -0.00319166836768
  C          -6.45090063315032      0.45649665550135     -0.03834179771940
  C           3.74207266771715      0.36663443963680     -0.03660678838996
  C          -7.72846054056699     -0.37821323700775     -0.00422544559567
  C           6.17730948101327      0.42977682672401      0.00447040809521
  C           5.06848075852663     -1.75010983653611      0.11317657275691
  H          -1.33644481637074      1.03676477653477     -0.93908542600153
  H          -1.33603017660428      1.10849483315356      0.80954478465890
  H          -2.63253876086776     -1.10673176145247     -0.85134239681490
  H          -2.63217527299433     -1.03496498761323      0.89823341431789
  H          -0.08053433381864     -1.05635242848684      0.89867117222045
  H          -0.08108153599542     -1.12820346959084     -0.85119029015862
  H          -3.89015271903335      1.12975831067230      0.80957170124477
  H          -3.89038274612404      1.05818844055776     -0.93961690604635
  H           1.22130263198357      1.02433646052119     -0.93459667748457
  H           1.22193137765557      1.09546434133570      0.80475406211817
  H          -5.18691656961967     -1.08470961705472     -0.85205993548887
  H          -5.18653443261418     -1.01340818466630      0.89747807980256
  H           2.45892031084287     -1.08453504401406      0.89641353732365
  H           2.45796770731558     -1.15412534804787     -0.85038389935036
  H          -6.44346925857591      1.15004150390209      0.80922515910822
  H          -6.44378981335515      1.07901032867815     -0.93937242022698
  H          -7.77612542643490     -0.98640395247961      0.90273529011227
  H          -8.61993656636371      0.25170095716063     -0.02955821823544
  H          -7.77651006839385     -1.05778707004633     -0.85898723029410
  H           6.71535199934962      0.26387336681860      0.94363234795257
  H           6.81972552182535      0.10649899857123     -0.81971272293657
  H           5.95528310272318      1.48686692950002     -0.09999327364153
  H           5.47099626574043     -2.02567754760435      1.09487742021246
  H           4.11784013192681     -2.25385191055004     -0.02038159336186
  H           5.76005080600346     -2.12394575642758     -0.64763859390383
