36
CID 268208; DFT optimized geometry from ORCA OUT; energy -995.151481273545 Eh
O          0.268735         1.490403         0.269491
O         -1.356594        -2.162554        -0.458137
O          4.681063        -0.304803         0.342290
O          4.912485         1.517661        -0.992333
C         -1.684834         0.148652        -0.028364
C          0.579155        -0.862957        -0.088483
C          1.088942         0.409362         0.154415
C         -0.873439        -1.064950        -0.216948
C         -1.080654         1.345179         0.175470
C         -3.160423         0.020710        -0.071737
C          1.480671        -1.927770        -0.201197
C          2.453906         0.650362         0.285272
C          3.311216        -0.424694         0.161994
C         -1.741940         2.675212         0.303616
C          2.836749        -1.717286        -0.078497
C         -3.945454         0.410639         1.014564
C         -3.790631        -0.521485        -1.193849
C         -5.328951         0.288242         0.973469
C         -5.172594        -0.641765        -1.237134
C         -5.946939        -0.235192        -0.155468
C          5.394650         0.696133        -0.267773
C          6.843213         0.582727         0.109287
H          1.076677        -2.913351        -0.387691
H          2.810701         1.652570         0.460867
H         -1.675531         3.038950         1.332248
H         -1.224606         3.397272        -0.330795
H         -2.788142         2.623177         0.019407
H          3.545935        -2.529239        -0.160102
H         -3.465814         0.801713         1.903232
H         -3.191433        -0.854324        -2.029774
H         -5.921615         0.594144         1.826332
H         -5.646563        -1.059681        -2.116212
H         -7.024439        -0.334053        -0.189715
H          6.949670         0.640940         1.193462
H          7.232601        -0.386700        -0.204899
H          7.404100         1.382116        -0.366274
