51
Coordinates from ORCA-job 2682 E -705.272408858275
  O          10.13111919212111     -0.31193572907891      0.00340441151906
  C           0.01408542329952     -0.38824888543980      0.02866688283541
  C          -1.26355103324266      0.44545567586196     -0.02611355262161
  C           1.29008038605480      0.44854049630008     -0.01660231118822
  C          -2.53964535798794     -0.39118558152554      0.01917970549632
  C           2.56767804519155     -0.38523611409368      0.03781169390593
  C          -3.81726825839738      0.44257708557552     -0.03537190389177
  C           3.84347345302919      0.45189701797020     -0.00699570487693
  C          -5.09339859147174     -0.39404232254955      0.00994946546266
  C           5.12069198159922     -0.38233901650698      0.04712905177455
  C          -6.37104392295467      0.43979182120737     -0.04432084022859
  C           6.39623778571458      0.45574973018547      0.00293955207987
  C          -7.64723889408790     -0.39657241362979      0.00060109373324
  C           7.67235345144292     -0.38185027561869      0.05131361564416
  C          -8.92590337374523      0.43669071031905     -0.05307222671146
  C           8.93667814764349      0.46450921706618      0.01744230283006
  C         -10.19551391802568     -0.40955025759618     -0.00741380445554
  H          10.14918036153018     -0.85644207427131      0.79803707267704
  H           0.01141887628675     -0.99428036047572      0.94193375779001
  H           0.01809366192172     -1.09896397885072     -0.80569878589982
  H          -1.26747942745809      1.15618817553800      0.80826417335323
  H          -1.26084191498512      1.05149372311850     -0.93936455754488
  H           1.29268930293826      1.05472330408248     -0.92973174421789
  H           1.28623179431383      1.15907848599313      0.81793299003891
  H          -2.53580613108114     -1.10180585585079     -0.81527899521312
  H          -2.54229146164701     -0.99732693872109      0.93237720242420
  H           2.56502539664154     -0.99171518646131      0.95076811726096
  H           2.57184599734052     -1.09538319532522     -0.79698521862516
  H          -3.82108263363783      1.15319322555106      0.79910348673563
  H          -3.81467233075993      1.04872034406324     -0.94855665429582
  H           3.84620783418246      1.05818455036595     -0.91999975752963
  H           3.83952591516315      1.16206451668115      0.82784484322876
  H          -5.08968666083755     -1.10453567394012     -0.82461120411126
  H          -5.09596489705034     -1.00031692468429      0.92304573121957
  H           5.11832128779543     -0.98900774243956      0.95983905316691
  H           5.12572530781857     -1.09163319738242     -0.78804457478348
  H          -6.37480544623505      1.15005929434027      0.79047365494782
  H          -6.36831358595662      1.04627332805841     -0.95730648684439
  H           6.39686555332538      1.06308620766112     -0.90913943344165
  H           6.39133092968265      1.16393699397281      0.83929299413890
  H          -7.64440344952967     -1.10682714167793     -0.83441689469341
  H          -7.65056728543305     -1.00360416372507      0.91342149008930
  H           7.67309916990964     -0.99052662813686      0.96428143784142
  H           7.69591707058873     -1.08039716974932     -0.79042079809201
  H          -8.92788875458230      1.14579196101776      0.78159686382641
  H          -8.92192769618379      1.04251971759803     -0.96545955246555
  H           8.94107744166652      1.16651228206497      0.86232020960700
  H           8.96730799760146      1.05880513973413     -0.89800789595850
  H         -10.24016940807465     -1.00140310875837      0.91041806341898
  H         -11.09290967358295      0.21115195270583     -0.04701802764332
  H         -10.23428565785488     -1.10515702054344     -0.84962799171229
