18
CID 2723602; DFT optimized geometry from ORCA OUT; energy -272.932371595603 Eh
O          2.158922         0.761414         0.020882
C          0.059152        -0.370357        -0.238403
C         -1.421772        -0.396470         0.164671
C          0.824418         0.702209         0.525202
C          0.703806        -1.742458        -0.039952
C         -2.222934         0.846631        -0.220573
H          2.641606         1.440144         0.502473
H          0.120215        -0.109068        -1.301692
H         -1.881018        -1.271217        -0.304754
H         -1.495310        -0.564344         1.245468
H          0.826468         0.451800         1.595836
H          0.335558         1.674904         0.407324
H          0.632123        -2.053316         1.006869
H          0.201348        -2.498481        -0.647026
H          1.757570        -1.723791        -0.314888
H         -1.881421         1.738759         0.306908
H         -2.143631         1.045233        -1.292423
H         -3.280893         0.715430         0.015039
