19
CID 2723683; DFT optimized geometry from ORCA OUT; energy -348.160354578196 Eh
O          1.487640        -0.985815         0.997049
O         -1.435484        -0.790008        -1.139442
C         -0.008044         0.685792         0.032745
C          1.267194        -0.137679        -0.137647
C         -1.267011        -0.160899         0.139085
C          2.483205         0.735712        -0.410254
C         -2.493475         0.664263         0.504083
H          1.713223        -0.427229         1.750717
H         -2.137577        -1.445005        -1.070032
H          0.086464         1.307098         0.930803
H         -0.121231         1.365740        -0.817449
H          1.121742        -0.832021        -0.966353
H         -1.100580        -0.930063         0.902115
H          2.640739         1.447823         0.406785
H          3.378767         0.120890        -0.506665
H          2.354836         1.308939        -1.330771
H         -2.371124         1.132689         1.483580
H         -2.661678         1.446953        -0.238743
H         -3.386963         0.036113         0.545281
