14
CID 2723631; DFT optimized geometry from ORCA OUT; energy -626.772214220796 Eh
S         -0.883447        -1.809111         0.113637
N         -0.609667         0.839280         0.009161
N          1.337976        -0.377125        -0.002446
C         -0.019872        -0.375942         0.036582
C         -2.047086         1.029140         0.045733
C          2.190951         0.787431        -0.073221
H         -0.034857         1.662671        -0.034074
H          1.747897        -1.294219         0.017727
H         -2.472254         0.608367         0.957646
H         -2.247863         2.099399         0.009710
H         -2.525500         0.539186        -0.802960
H          2.064555         1.441455         0.796795
H          3.227590         0.458582        -0.091641
H          2.010835         1.372901        -0.981760
