19
CID 2724272; DFT optimized geometry from ORCA OUT; energy -253.057771714383 Eh
N          2.163853         0.895756        -0.195327
C          0.028680        -0.382708        -0.309087
C         -0.778743         0.716688         0.392860
C          1.494884        -0.365792         0.133052
C         -0.563268        -1.773590        -0.076327
C         -2.229817         0.833672        -0.070169
H          1.881162         1.633810         0.437778
H          3.167534         0.799940        -0.101488
H          0.018325        -0.170377        -1.384459
H         -0.751828         0.539128         1.475217
H         -0.286344         1.677245         0.220279
H          2.024177        -1.162395        -0.395763
H          1.539994        -0.616444         1.205429
H         -0.604195        -2.007216         0.991828
H         -1.575436        -1.855205        -0.472643
H          0.042286        -2.542254        -0.562002
H         -2.721300         1.687959         0.399558
H         -2.282549         0.974570        -1.152885
H         -2.811308        -0.055446         0.178048
