25
CID 2724159; DFT optimized geometry from ORCA OUT; energy -464.608257456451 Eh
O         -3.927993         0.720610         0.391811
C          1.104175        -0.136174         0.251368
C          0.383772         1.128459        -0.255009
C          0.409819        -1.369938        -0.331179
C         -1.068241         1.165695         0.220124
C          2.596936        -0.072134         0.012630
C         -1.749721        -0.161733         0.045825
C         -1.077987        -1.292002        -0.209972
C          3.351874         0.827600         0.953014
C          3.226353        -0.745746        -0.947258
C         -3.212557        -0.228251         0.159696
H          0.958220        -0.168308         1.339386
H          0.903021         2.028148         0.076782
H          0.420112         1.128091        -1.348755
H          0.657704        -1.482582        -1.393263
H          0.777220        -2.279438         0.152569
H         -1.118208         1.453915         1.275896
H         -1.636566         1.930196        -0.314009
H         -1.639633        -2.212655        -0.345350
H          3.252438         0.473757         1.983881
H          4.412117         0.866211         0.705211
H          2.961212         1.848285         0.933298
H          4.296188        -0.648768        -1.085094
H          2.715451        -1.412814        -1.627773
H         -3.642654        -1.242159         0.016288
