16
CID 2724537; DFT optimized geometry from ORCA OUT; energy -213.75742411902 Eh
N          0.571501         1.434233         0.131492
C          0.463714        -0.006153         0.395197
C         -0.732603        -0.574724        -0.372032
C          1.744064        -0.785116         0.081510
C         -2.073700         0.019469         0.046555
H          1.320412         1.842343         0.679513
H          0.804047         1.590680        -0.844955
H          0.253595        -0.106823         1.466404
H         -0.567088        -0.404476        -1.443235
H         -0.748115        -1.660222        -0.237117
H          2.594144        -0.376349         0.632852
H          1.646806        -1.841283         0.346356
H          1.976110        -0.725978        -0.986150
H         -2.283411        -0.197637         1.097208
H         -2.070536         1.102555        -0.073105
H         -2.890608        -0.394243        -0.548216
