24
CID 2724897; DFT optimized geometry from ORCA OUT; energy -351.544876382698 Eh
O          2.400385         1.340827         0.321518
C         -0.313268         0.231077        -0.292574
C          0.907651        -0.586923         0.117272
C         -1.633129        -0.389878         0.157209
C          2.239411         0.049309        -0.276047
C         -2.858881         0.420007        -0.259839
C          3.427571        -0.848369         0.043272
C         -4.174330        -0.204096         0.198514
H          2.449653         1.224188         1.278052
H         -0.221335         1.240419         0.116736
H         -0.318713         0.344030        -1.382743
H          0.903670        -0.740782         1.204709
H          0.850253        -1.585264        -0.329932
H         -1.717405        -1.405355        -0.247847
H         -1.628763        -0.499920         1.248161
H          2.226910         0.257844        -1.349932
H         -2.773047         1.434136         0.144291
H         -2.864176         0.527665        -1.349677
H          3.463143        -1.073275         1.114000
H          3.359264        -1.796899        -0.493811
H          4.360826        -0.357622        -0.234935
H         -4.208745        -0.292701         1.287442
H         -5.032281         0.394732        -0.113637
H         -4.299419        -1.207173        -0.217424
