18
CID 2724896; DFT optimized geometry from ORCA OUT; energy -272.937494537203 Eh
O          1.288467         1.340429         0.212434
C         -0.291340        -0.526454         0.143186
C          1.064894         0.020896        -0.297288
C         -1.477938         0.318163        -0.313052
C          2.213631        -0.907022         0.075360
C         -2.816167        -0.223049         0.182760
H          1.343119         1.284876         1.174160
H         -0.398333        -1.548117        -0.237782
H         -0.294716        -0.609150         1.238488
H          1.053683         0.158288        -1.382602
H         -1.337668         1.344570         0.032923
H         -1.482585         0.363229        -1.407272
H          2.246975        -1.062487         1.158419
H          2.098756        -1.884731        -0.397613
H          3.165951        -0.478540        -0.238797
H         -2.850413        -0.246587         1.275189
H         -3.647981         0.394571        -0.161540
H         -2.988715        -1.242117        -0.173483
