33
CID 2737541; DFT optimized geometry from ORCA OUT; energy -469.45585735929 Eh
O          4.160273        -1.365721         0.524424
C          0.218400         0.528348         0.115205
C         -1.046125        -0.267055        -0.199424
C          1.504669        -0.211554        -0.242814
C         -2.334298         0.467230         0.163868
C          2.765771         0.590863         0.062723
C         -3.598726        -0.327588        -0.152057
C          4.063351        -0.156915        -0.237578
C         -4.888104         0.405485         0.211646
C          5.295588         0.714169        -0.031968
C         -6.145730        -0.398093        -0.108822
H          4.217579        -1.127521         1.457667
H          0.185602         1.485043        -0.419252
H          0.230456         0.779227         1.182382
H         -1.060161        -0.515664        -1.266771
H         -1.012070        -1.224242         0.333143
H          1.546284        -1.161993         0.295389
H          1.491886        -0.465906        -1.308832
H         -2.320478         0.714901         1.231592
H         -2.367149         1.425029        -0.368229
H          2.757762         1.523780        -0.511419
H          2.771271         0.885632         1.120695
H         -3.613552        -0.575120        -1.219893
H         -3.566321        -1.285782         0.379501
H          4.038766        -0.502990        -1.275102
H         -4.872664         0.651809         1.278740
H         -4.919484         1.362578        -0.319973
H          5.344035         1.074737         1.000476
H          6.202621         0.145345        -0.239193
H          5.274298         1.586808        -0.688410
H         -6.155167        -1.346156         0.435052
H         -7.051139         0.149301         0.160990
H         -6.202266        -0.630154        -1.175441
