53
CID 275196; DFT optimized geometry from ORCA OUT; energy -1433.305119156804 Eh
O         -0.242011         0.541817         1.082110
O          1.133549         1.040981        -1.382488
O          3.934249         2.184269        -1.043474
O          5.590641         1.018951         0.043603
O         -4.309484         1.825596        -0.082939
O         -1.353043         2.480637         0.928001
O         -5.790146        -0.363001        -0.856543
N          0.483813        -2.866462        -0.154035
C          0.529981        -1.408931        -0.255687
C         -0.453416        -0.856019         0.812457
C          1.928121        -0.825878        -0.155042
C          1.286362        -3.363529         0.961430
C          2.966517        -1.543985         0.435807
C          2.761470        -2.974762         0.876613
C         -1.887233        -0.932558         0.379544
C          2.153748         0.461545        -0.700664
C          0.789164        -3.522137        -1.417483
C         -2.417953         0.353936         0.378846
C          4.247563        -0.980791         0.567495
C          3.418540         0.996679        -0.555942
C          4.428106         0.287128         0.079913
C         -1.353843         1.283816         0.810402
C         -2.634069        -2.021473        -0.032980
C         -3.731547         0.599106        -0.037478
C         -3.932628        -1.784749        -0.470039
C         -4.482870        -0.503287        -0.478862
C          5.200131         2.320540        -0.397827
C          1.032557         2.470339        -1.376355
C         -4.448652         2.531054         1.159930
C         -6.013018         0.355880        -2.073149
H          0.118106        -1.135980        -1.226677
H         -0.280626        -1.377657         1.754054
H          0.865257        -2.974986         1.890836
H          1.178496        -4.448955         1.002302
H          3.240409        -3.142932         1.844568
H          3.277828        -3.630243         0.166788
H          0.713657        -4.603192        -1.288999
H          0.057678        -3.216798        -2.167012
H          1.790501        -3.291166        -1.809197
H          5.060073        -1.530358         1.022752
H         -2.209400        -3.014660        -0.032774
H         -4.563363        -2.598932        -0.803317
H          5.931005         2.698934        -1.109911
H          5.099156         2.983178         0.471179
H          1.071706         2.847686        -0.354328
H          1.820078         2.923047        -1.977360
H          0.058070         2.696803        -1.801267
H         -3.478274         2.847202         1.537452
H         -5.061515         3.401324         0.936026
H         -4.963127         1.900283         1.889035
H         -7.089756         0.357581        -2.230146
H         -5.647385         1.380029        -1.998373
H         -5.523800        -0.153029        -2.909488
