50
Coordinates from ORCA-job 2751800 E -1078.519356016453
  O          -0.27094399220026      2.76586268406957      1.47357312356995
  O          -0.53197676337450     -2.73692214711022      1.01361000787326
  O          -2.38146301652053      2.12665915162883     -0.10088510205872
  O          -2.99050295022688     -2.54427243604066     -0.15727159003488
  C           2.14794029203405      0.57998265874884     -0.21394370563534
  C           1.53823577267522     -0.67544801814989      0.48672556491235
  C           3.67356210850492      0.55182419525402     -0.52646071202107
  C           1.96962450847750     -1.93229642478467     -0.30765600948957
  C           3.99240219551378     -0.76508771829716     -1.25746004803548
  C           3.47688918977323     -2.00052176270463     -0.53164356084765
  C           1.69365465132183      1.85703461572521      0.48253183136288
  C           0.02267705099121     -0.51474382639721      0.40330384282396
  C           1.90844467353103     -0.83366355571684      1.97769613595969
  C           4.58087016795506      0.70247801012434      0.70460462325366
  C           3.99972449907191      1.71086738924226     -1.48354063700508
  C          -0.58783692372925      0.69352348887210      0.37934900798868
  C           0.21974431120735      1.88259558297791      0.80826853037247
  C          -0.88059486650647     -1.69267354087250      0.51431915157642
  C          -2.03263421543057      0.84677737963126      0.11182956053913
  C          -2.90195636035693     -0.19011011400607     -0.02222904439505
  C          -2.35956620438121     -1.53217091518889      0.08299289060641
  C          -4.36397937333982     -0.05821287189233     -0.40119586004591
  C          -5.18334629959728      0.83112316404627      0.54667393006457
  C          -4.54729766514331      0.34277925178184     -1.87324006385170
  H          -3.32929889956403      2.18402209671607     -0.27225407590269
  H           1.67402143991887      0.58038206878921     -1.20357521403848
  H           1.62212454901571     -2.82557349516386      0.20431797514102
  H           1.47196147726006     -1.91401191426817     -1.28404824590477
  H           3.53524656724753     -0.72818795620996     -2.25291984690103
  H           5.07252637623435     -0.83329444327924     -1.41508387899531
  H           3.99492493599051     -2.12553555209381      0.42254205942584
  H           3.70710366014661     -2.89504405379933     -1.11523591016350
  H           2.22364211959850      2.03287575201812      1.41981860695474
  H           1.88294187555547      2.73511797787088     -0.13841421532187
  H           1.71912623003520      0.07947447078105      2.54235078124352
  H           1.31042371621453     -1.63152666647791      2.41498220359078
  H           2.95474789052279     -1.09666344852786      2.10548781858530
  H           4.53703375599622     -0.15187510072545      1.37490800030589
  H           5.61756366827568      0.80467895703122      0.37657860991323
  H           4.33698359643730      1.59379354200361      1.28386108729354
  H           3.92517226000026      2.68316544949471     -0.99445747706766
  H           5.02250108672301      1.61098652056528     -1.85291268801201
  H           3.33131865639973      1.71098317830586     -2.34788845662294
  H          -4.76065172991606     -1.06924920382534     -0.30098601462843
  H          -4.99152916036834      0.57754625039581      1.58961398247825
  H          -4.99250289805285      1.90370101087132      0.43146667269251
  H          -6.24807601529190      0.69266178767389      0.35123786892674
  H          -4.14954502319250      1.33859648400206     -2.08858011305685
  H          -4.03783197942073     -0.36365330842824     -2.52928351493600
  H          -5.60677794601601      0.34822435533868     -2.13730688248283
