32
Coordinates from ORCA-job 27694 E -672.579885766849
  O           2.87607724509063     -1.25614176238784      0.31823576686904
  O           2.63873498696039      1.49226894216841     -0.36210487079901
  N          -3.31826451024624      0.20511476616650     -0.37713137614950
  C          -2.00491699244068     -1.68864215312839      0.41607694998500
  C          -3.24171751559237     -0.83122091612111      0.64175477491960
  C          -2.23277032227502      1.16087604490995     -0.23186136703589
  C          -0.76895114223816     -0.84731406218956      0.22518997871239
  C          -0.88240249697008      0.50132702621499     -0.10719835380749
  C           0.50084273860226     -1.40883762086719      0.34916756002859
  C           0.27135201694600      1.26153700848809     -0.28476511384992
  C          -4.60431279107320      0.87218617739690     -0.39673549062221
  C           1.64869818577872     -0.65754212248117      0.15885649368555
  C           1.53212083349478      0.70490486520760     -0.14865517562417
  C           3.62873954251736     -1.40602260045759     -0.88798769837329
  C           3.41500588159029      1.76242509098677      0.80752118801382
  H          -1.86626741072981     -2.37265870939584      1.25729650887595
  H          -2.16348039249439     -2.30534182347886     -0.47422411897316
  H          -3.21975809154949     -0.39317676996937      1.65770395347262
  H          -4.14036974876713     -1.44726042325220      0.57765757497675
  H          -2.23772428878835      1.82526614253238     -1.09984160301805
  H          -2.39548203371723      1.80508775915007      0.65606777304216
  H           0.61573277202207     -2.45737712045779      0.59737202025219
  H           0.20575399664797      2.31412218886102     -0.53443998478122
  H          -4.82439328795313      1.40527932839277      0.54589042160211
  H          -4.62937848605910      1.60178216637286     -1.20830806394474
  H          -5.39708262646952      0.14281949681231     -0.56903768598193
  H           4.56541285681514     -1.88424052256856     -0.60749757118697
  H           3.09048082710729     -2.04478038391318     -1.59465298904882
  H           3.82983540909216     -0.43863770750372     -1.35155836137505
  H           3.79076224571831      0.84048174453523      1.25467006755200
  H           4.24824612863637      2.38431605439672      0.48550742530221
  H           2.81629147034418      2.30769789557980      1.54334736728145
