25
Coordinates from ORCA-job 2775 E -726.007949935120
  O          -1.55649645510661     -1.65956982764920     -0.18641802121228
  O           0.14065284793069      2.72572257628921      0.34465908487127
  O           3.12459972422036     -0.95290261946288      0.24716994035438
  O          -3.72850662941905     -2.08541564172466     -0.39630052793338
  C          -0.72816913979374      0.56947598157509      0.08088807925080
  C          -0.51419640031832     -0.80661063706566     -0.02688580515983
  C           0.40527347174684      1.40160143113095      0.24566757514316
  C           0.75431809055870     -1.37611923684966      0.02163848520669
  C           1.84126287349782     -0.52979158968769      0.18413584322167
  C           1.67322453493162      0.86053930589435      0.29677320851221
  C          -2.07180969696451      1.04709704551488      0.01804985991674
  C          -3.10225592637317      0.19023858015540     -0.14088511721399
  C          -2.88917826222470     -1.23762689278837     -0.25334371744497
  C           1.22879350994286      3.62297229323365      0.51184894374526
  C           3.38434871171717     -2.34643698444352      0.14096669606101
  H           0.84721028340755     -2.44612424888976     -0.06797905816051
  H           2.55627361292066      1.46653560723031      0.42151923114719
  H          -2.24654728640460      2.11120109863309      0.10060023050451
  H          -4.12954024494534      0.51886179092115     -0.19221710517569
  H           1.77469358962462      3.41201249854006      1.43512794902984
  H           1.91509570962814      3.57220888238012     -0.33746126865734
  H           0.79028638654932      4.61602134499095      0.56696249213768
  H           2.90351843423771     -2.90006850409641      0.95155721633181
  H           3.04385084546575     -2.73870627614573     -0.82076472779685
  H           4.46325441517026     -2.45424797768568      0.21669651332062
