26
CID 2822957; DFT optimized geometry from ORCA OUT; energy -689.115906016392 Eh
O          1.910138        -1.002299         0.113451
O          2.268031         1.557667         0.213593
O         -3.234447        -1.665194         0.228953
O         -3.927355         0.275333        -0.584442
C          0.785943        -0.249497         0.073792
C          0.983771         1.151687         0.117679
C         -0.502463        -0.750029        -0.015901
C         -1.609528         0.112308        -0.072933
C         -0.115900         1.998700         0.053427
C         -1.402964         1.482772        -0.049938
C          1.786471        -2.421567         0.073261
C          3.179772        -3.005069         0.136209
C         -3.009996        -0.383606        -0.176163
C          2.533592         2.951791         0.245301
H         -2.451567        -2.017342         0.670099
H         -0.639344        -1.818865        -0.096344
H          0.023461         3.068947         0.081741
H         -2.257275         2.141819        -0.109009
H          1.180392        -2.761011         0.921363
H          1.277678        -2.720276        -0.850234
H          3.680769        -2.704799         1.057023
H          3.128026        -4.094866         0.107575
H          3.777276        -2.663422        -0.709523
H          2.065558         3.425188         1.113013
H          3.613952         3.045798         0.319505
H          2.186075         3.442467        -0.668168
