26
Coordinates from ORCA-job 28782 E -606.491640065551
  O          -0.08415979739687     -0.81953190425669      2.00147124588284
  O           0.12616454860438      1.33026370566612      1.37505824631046
  N          -2.11194357930953     -0.09022512278130     -0.65960571374491
  N           2.44345072419038     -1.24710625731816      0.90005663047865
  N          -3.74015604323367     -0.81817487835738      0.79545934583470
  N          -2.53568675574669      1.17518314760015      1.24589026880982
  C           0.81914471449638     -0.79943636780930     -0.96402215550739
  C           0.05964330759795      0.19199738413817     -1.85642859829775
  C           1.52612939795437     -0.27655581607853      0.31457837355082
  C          -1.20925839158010      0.85422879731861     -1.30040352227863
  C           0.45822274321884      0.04237570591701      1.34680848886520
  C          -2.77682722035462      0.14230424243786      0.50903138800010
  H          -2.50706309616479     -0.80063147993289     -1.25274402526138
  H           1.90787386689109     -1.95399109587767      1.39302456664341
  H           2.99244892324384     -1.70636858197186      0.18350471530464
  H          -4.02944418197164     -0.82845697968545      1.76082393053647
  H          -3.53389169220023     -1.74874313245386      0.46272456015148
  H          -3.09045201060671      1.15962456624966      2.09400037311556
  H          -0.86000408622704      1.39949682999041      1.58389375211665
  H           0.15913935674659     -1.61743501195433     -0.66349435942554
  H           1.60377185971448     -1.24503125791296     -1.58312256675060
  H           0.73149616630816      0.99756605226737     -2.16844446899006
  H          -0.20408215079562     -0.34599936872680     -2.77371960847302
  H           2.06962676578075      0.64064993831990      0.07681709678527
  H          -1.72454081489657      1.36120654196585     -2.12380512686593
  H          -0.96117955426310      1.61276734324607     -0.57019283679086
