14
Coordinates from ORCA-job 289 E -382.651292714905
  O           1.82889410320755      1.32764406739223      0.00002077050914
  O           1.82886724793244     -1.32767082236147      0.00003857568001
  C           0.61710529079994      0.70097344491442      0.00002831504064
  C           0.61709034043165     -0.70097375896338      0.00004401366726
  C          -0.59237701350694      1.38190793302055      0.00002883843953
  C          -0.59240808776515     -1.38188065621173      0.00007211605135
  C          -1.80189860675973      0.69291945923396      0.00005381652039
  C          -1.80191470481791     -0.69286302797221      0.00007732928110
  H           1.68999115924118      2.28123590061449     -0.00005601247263
  H           1.68994690345809     -2.28126004058814      0.00006924669081
  H          -0.58345867435976      2.46678621893018      0.00001680041696
  H          -0.58351275430483     -2.46676086261586      0.00008732541712
  H          -2.73309582195399      1.24319018602940      0.00005377179531
  H          -2.73312638160254     -1.24311004142243      0.00009609296302
