41
CID 300476; DFT optimized geometry from ORCA OUT; energy -512.143821659367 Eh
C          0.002579        -0.768107        -0.369014
C          1.267041        -1.092339         0.440292
C         -1.243779        -1.115502         0.458541
C         -0.014638         0.670197        -0.914774
C          2.587721        -0.877143        -0.294503
C         -2.578718        -0.925716        -0.257243
C         -0.016758         1.777282         0.137755
C          3.800081        -1.357092         0.501163
C         -3.770292        -1.427280         0.556295
C         -0.034810         3.176136        -0.475530
C          5.122789        -1.126470        -0.224857
C         -5.107403        -1.222343        -0.150799
C         -0.036869         4.288707         0.569330
H          0.002321        -1.430544        -1.244760
H          1.269715        -0.505657         1.365224
H          1.207772        -2.139966         0.755160
H         -1.160274        -2.161587         0.773013
H         -1.244228        -0.528239         1.383117
H          0.848862         0.809344        -1.571176
H         -0.890429         0.793506        -1.557939
H          2.558084        -1.399796        -1.258047
H          2.718871         0.183667        -0.529391
H         -2.733020         0.132190        -0.491118
H         -2.553304        -1.448876        -1.220639
H         -0.884961         1.667505         0.795635
H          0.863685         1.683979         0.781765
H          3.819294        -0.844933         1.469198
H          3.684957        -2.422957         0.724719
H         -3.632041        -2.490512         0.779256
H         -3.785171        -0.914286         1.523967
H          0.833837         3.291396        -1.132606
H         -0.915925         3.274974        -1.118528
H          5.971071        -1.480230         0.364617
H          5.141290        -1.651433        -1.183425
H          5.279003        -0.063996        -0.428639
H         -5.940352        -1.590971         0.451292
H         -5.286271        -0.163254        -0.353567
H         -5.129963        -1.748960        -1.108375
H         -0.912686         4.215484         1.219239
H          0.850285         4.231772         1.205360
H         -0.049584         5.276411         0.104026
