42
Coordinates from ORCA-job 3026 E -923.773246334840
  O           0.22627437847584     -1.13436396503610      0.89863637860811
  O           0.24508394738258      1.13832718617764     -0.90595708641528
  O          -0.40129363949399      0.24607916324280      2.56504491724729
  O          -0.37387077931673     -0.23757629704271     -2.57933311147421
  C           2.14666121493714     -2.55924234579740      0.84661422550123
  C           2.17549779253398      2.54862433127694     -0.83206482119676
  C           2.59495366967615     -2.16505240722894     -0.55934708615921
  C           2.60391712272468      2.15192560909252      0.57937422093695
  C           1.44578804399127     -1.45298557150778      1.60526569787686
  C           1.47511338054305      1.44739850985950     -1.59843437553328
  C          -1.84233462093907     -0.06188684632443      0.68060136654822
  C          -1.83389865382066      0.08149537991071     -0.71143137447997
  C           3.31510850440218     -3.29702991635581     -1.28585804796915
  C           3.32381975942957      3.27894519418819      1.31383750796517
  C          -0.60210610896147     -0.25808264533359      1.48799669501935
  C          -0.58309734813652      0.26824042392815     -1.50466521026090
  C          -3.05619529713190     -0.10134800915954      1.35981498807414
  C          -3.03963722692013      0.13005504616373     -1.40436669428672
  C          -4.25499201379022     -0.03357159827161      0.66356332242099
  C          -4.24673560863987      0.07131513363534     -0.72176668409339
  H           1.48435220146638     -3.42881367962085      0.79431036833439
  H           3.01556362453412     -2.86404027976552      1.43957639826432
  H           1.51944266424353      3.42338895099988     -0.78813970556589
  H           3.05375799467158      2.84623417302280     -1.41480437077132
  H           1.72571109615187     -1.85227497094172     -1.14155216060512
  H           3.25620729870068     -1.29437173486428     -0.49039464942347
  H           1.72543406030654      1.84611702828037      1.15131327645409
  H           3.25933112557556      1.27621924241953      0.51882774842872
  H           2.05524042506452     -0.54992102201413      1.66566130761342
  H           1.18858264324581     -1.75396655836520      2.62117732594191
  H           2.07833619905137      0.53970405497763     -1.65141113870746
  H           1.23210929137984      1.74992273617617     -2.61737677744030
  H           4.20816075627439     -3.61368248623857     -0.74074484987019
  H           2.66509024338839     -4.16887238309942     -1.39198628988662
  H           3.62482971206424     -2.99160745031807     -2.28677669924345
  H           3.61921257892247      2.97189075191641      2.31857634718475
  H           4.22566081900574      3.58861187721051      0.77929341036973
  H           2.67908284693225      4.15566598571805      1.41170950384297
  H          -3.04586912910381     -0.20161243273342      2.43666793279649
  H          -3.01633582448535      0.23019254395566     -2.48102893385506
  H          -5.19313783036195     -0.07151846399277      1.20169130970515
  H          -5.17840331397405      0.11626774185935     -1.27050818189652
