39
CID 3033866; DFT optimized geometry from ORCA OUT; energy -585.89112653204 Eh
C          0.928638         1.268310        -0.210758
C          1.835489         0.860954        -1.340631
C          2.139915        -0.641256        -1.256125
C          1.606639         1.051530         1.120781
C         -0.334996         1.691380        -0.341246
C          2.500417        -1.082591         0.138605
C         -1.210346         1.999699         0.857830
C          2.277414        -0.297744         1.191965
C         -1.835386         0.741029         1.504536
C         -1.032145         1.878810        -1.661724
C          3.108666        -2.447766         0.264718
C         -2.753897        -0.010658         0.590615
C         -2.537511        -1.183935        -0.007595
C         -3.573430        -1.790021        -0.914035
C         -1.284124        -2.000064         0.136034
H          1.428461         1.104267        -2.319065
H          2.781005         1.408029        -1.246044
H          1.272503        -1.216153        -1.602311
H          2.958386        -0.896160        -1.938423
H          2.360530         1.837400         1.280554
H          0.910366         1.143298         1.952874
H         -0.648148         2.538807         1.622886
H         -2.017249         2.669184         0.546556
H          2.573066        -0.640070         2.179586
H         -1.035940         0.093624         1.863604
H         -2.399003         1.060912         2.388039
H         -1.953016         1.290513        -1.684259
H         -1.325080         2.926207        -1.790599
H         -0.430855         1.592412        -2.520878
H          3.320654        -2.701208         1.303857
H          2.435547        -3.210096        -0.141839
H          4.040903        -2.518567        -0.304730
H         -3.700432         0.485480         0.384773
H         -3.868896        -2.783967        -0.562262
H         -4.468322        -1.170541        -0.978129
H         -3.175353        -1.924184        -1.925495
H         -0.517864        -1.518253         0.737217
H         -1.510148        -2.976127         0.578261
H         -0.852654        -2.199967        -0.849646
