57
CID 3037565; DFT optimized geometry from ORCA OUT; energy -1008.114330936662 Eh
O         -5.371652        -0.986464         0.482997
O          4.419761        -1.493768         0.608167
O          4.464278         0.197168         2.813056
C         -1.062614        -0.489091        -0.040877
C         -2.043498         0.686381        -0.342451
C          0.143965        -0.347957        -1.035284
C         -3.482997         0.600444         0.262579
C         -1.778471        -1.818755        -0.329280
C         -1.357582         2.034646        -0.102462
C         -4.058011        -0.804336        -0.048718
C          0.816036         0.996752        -0.882025
C         -3.131173        -1.936746         0.363260
C          1.131686        -1.525686        -0.984728
C         -0.109661         2.178053        -0.977288
C         -0.539586        -0.479600         1.404764
C          3.142100         0.028300        -0.777907
C          2.509380        -1.161019        -1.525133
C         -4.380265         1.627815        -0.451620
C         -3.565721         0.893324         1.770080
C          2.131245         1.149522        -0.733576
C          3.512614        -0.398554         0.663428
C          4.391671         0.492697        -1.540745
C          4.106757         0.709231         1.523611
H         -5.298367        -1.124922         1.433776
H          4.828275        -1.556035         1.481976
H          3.654813         0.020475         3.306232
H         -2.214729         0.621148        -1.425735
H         -0.311684        -0.345881        -2.035794
H         -1.933233        -1.904350        -1.410962
H         -1.140717        -2.656420        -0.041674
H         -2.040259         2.854808        -0.325367
H         -1.080768         2.139036         0.948317
H         -4.199573        -0.862021        -1.132878
H         -3.607047        -2.884892         0.103344
H         -3.005745        -1.939674         1.451152
H          1.239390        -1.891066         0.036407
H          0.728243        -2.361798        -1.558296
H         -0.438975         2.267312        -2.020969
H          0.427627         3.098235        -0.738165
H         -1.343898        -0.498380         2.133432
H          0.079971        -1.356669         1.592566
H          0.070455         0.399794         1.607065
H          3.175245        -2.022792        -1.472028
H          2.423324        -0.880298        -2.579210
H         -4.148114         2.649869        -0.151270
H         -4.269265         1.559906        -1.536553
H         -5.424320         1.435866        -0.205287
H         -3.180047         0.085616         2.390376
H         -3.011737         1.795930         2.026528
H         -4.604748         1.062498         2.057113
H          2.526307         2.157617        -0.635021
H          2.585172        -0.721983         1.157741
H          4.820068         1.397795        -1.106267
H          5.154595        -0.285361        -1.534392
H          4.131173         0.718396        -2.576131
H          3.408475         1.545522         1.613630
H          5.038664         1.073033         1.093149
