31
CID 3037463; DFT optimized geometry from ORCA OUT; energy -1446.609158390872 Eh
S          3.887046        -0.836864        -1.816726
S          4.297949        -0.277964         1.149086
O         -3.265273         2.218168         0.229229
N         -2.216590         1.333383         0.292296
N          2.048701         0.023240        -0.219936
C         -1.019668        -0.550033         0.284714
C         -0.155845         0.547461         0.633621
C         -2.320043        -0.019496         0.079005
C         -0.928184         1.680176         0.623941
C          1.295561         0.459472         0.955400
C         -0.825831        -1.929436         0.137138
C         -3.412909        -0.813366        -0.258162
C         -1.906045        -2.724007        -0.203292
C         -3.184500        -2.171949        -0.397299
C          3.344814        -0.322671        -0.201667
C         -3.425528         2.726524        -1.105690
C          5.629508        -1.211340        -1.542246
H          1.539418        -0.016607        -1.090563
H         -0.679236         2.705027         0.842518
H          1.486250        -0.256293         1.759075
H          1.680332         1.422272         1.300812
H          0.153963        -2.364976         0.288133
H         -4.397391        -0.386043        -0.390915
H         -1.769475        -3.791245        -0.319079
H         -4.008700        -2.823687        -0.656617
H         -2.538255         3.283863        -1.413003
H         -3.618004         1.912812        -1.807043
H         -4.285870         3.390744        -1.055992
H          6.159081        -0.327063        -1.196637
H          5.736291        -2.010818        -0.813584
H          6.011709        -1.527985        -2.512708
