53
CID 3037151; DFT optimized geometry from ORCA OUT; energy -1188.981133136969 Eh
O         -3.260505        -2.870023        -0.475768
O         -4.245008         1.030081        -0.608577
O         -1.063824        -2.439534        -0.625597
N          0.448437         2.549453        -0.701283
N          1.718831        -0.931463        -0.859385
C          0.600453         1.308862        -1.479376
C         -1.364501         0.318655        -0.271570
C         -0.742410         0.613024        -1.640172
C         -1.566336         1.649344         0.478116
C         -0.195990         2.339906         0.595502
C          1.655651         0.451404        -0.835869
C          1.743282         3.221780        -0.572201
C          2.685562         0.956049        -0.090565
C          2.825578         2.418114         0.192149
C         -2.551795        -0.601340        -0.400885
C          3.432507        -0.165302         0.408233
C         -2.134757         1.437138         1.848358
C          2.784619        -1.334039        -0.077496
C          4.562443        -0.304596         1.221428
C         -2.203716        -2.029315        -0.507827
C         -3.839696        -0.244770        -0.532466
C          3.229838        -2.611636         0.245302
C         -3.189547         2.068548         2.346541
C          5.008884        -1.577136         1.540216
C          4.347433        -2.718415         1.060234
C         -2.954425        -4.263539        -0.618810
C         -5.644489         1.251025        -0.445652
H          0.933962        -1.527982        -1.080089
H          0.944685         1.610616        -2.475361
H         -0.625491        -0.244876         0.304235
H         -1.411851         1.258974        -2.212206
H         -0.615340        -0.309184        -2.208520
H         -2.230270         2.297711        -0.093707
H          0.428429         1.743126         1.278715
H         -0.331432         3.320106         1.057471
H          2.097650         3.423473        -1.586351
H          1.583373         4.187313        -0.087634
H          3.811998         2.795824        -0.094976
H          2.741752         2.592370         1.271178
H         -1.608145         0.714507         2.468594
H          5.079098         0.569554         1.598927
H         -4.617259        -0.996696        -0.613167
H          2.719782        -3.492144        -0.125068
H         -3.537812         1.886787         3.355628
H         -3.739642         2.795771         1.759752
H          5.881255        -1.697370         2.170138
H          4.717372        -3.699664         1.329165
H         -2.300577        -4.596389         0.186531
H         -3.910696        -4.777637        -0.571119
H         -2.465382        -4.452984        -1.574090
H         -5.937753         1.078001         0.592115
H         -5.827126         2.289689        -0.709051
H         -6.219768         0.598276        -1.107629
