24
CID 3037556; DFT optimized geometry from ORCA OUT; energy -687.134953707636 Eh
O          0.831896         1.579400         1.184276
O         -0.759366        -1.378224        -0.307509
O          1.996829        -1.249157         0.843017
O         -1.992268         1.106875        -1.142882
O          4.160488        -0.284437        -0.772260
O         -4.030506        -0.396815        -0.288914
C          0.597804         0.646955         0.126784
C         -0.662686        -0.182585         0.441373
C          1.810715        -0.231978        -0.163800
C         -1.932928         0.633831         0.173646
C          3.096438         0.554207        -0.353743
C         -3.147468        -0.204794         0.505330
H          0.688541         1.140983         2.031230
H         -0.052897        -1.967291        -0.013845
H          2.259922        -0.818990         1.666405
H         -2.752948         0.673156        -1.561276
H          4.144604        -1.072761        -0.215506
H          0.409875         1.252113        -0.761199
H         -0.641644        -0.418173         1.518056
H          1.611646        -0.789363        -1.079982
H         -1.920582         1.484651         0.871423
H          3.346377         1.081689         0.575834
H          2.959591         1.307025        -1.131709
H         -3.179672        -0.632762         1.525536
