21
CID 308072; DFT optimized geometry from ORCA OUT; energy -495.565252733808 Eh
O          1.878511         1.269417         0.375708
N          2.241993        -0.861389        -0.244061
N         -0.552334         2.259154        -0.252486
C         -0.048949        -0.106628         0.021364
C         -0.969106         0.963211        -0.122399
C         -0.543862        -1.410915         0.141796
C          1.412248         0.170794         0.067814
C         -2.341605         0.657980        -0.181859
C         -1.896616        -1.693390         0.096919
C         -2.795222        -0.640380        -0.075498
C          3.680590        -0.682693        -0.265736
H          1.852647        -1.674564        -0.685511
H         -1.241547         2.981260        -0.138770
H          0.392197         2.451268         0.053014
H          0.150086        -2.223412         0.315983
H         -3.047408         1.471046        -0.306764
H         -2.249068        -2.709823         0.205412
H         -3.859541        -0.836567        -0.115524
H          4.012074        -0.235530         0.670217
H          4.153574        -1.656218        -0.384931
H          3.997066        -0.026181        -1.080832
