39
CID 3082428; DFT optimized geometry from ORCA OUT; energy -884.462338198944 Eh
O          2.592087        -1.372651        -0.151027
O          1.274271        -1.125539        -2.045722
O         -2.244159        -2.432806         1.128211
O          4.413157        -0.419647         0.784514
C         -1.120169         0.686245         0.033067
C         -1.124553        -0.847574        -0.281550
C         -2.441478         1.285689        -0.525453
C          0.093642         1.326735        -0.699558
C          0.176576        -1.565129         0.077652
C          1.336305        -0.906652        -0.657589
C          1.339820         0.578314        -0.406492
C         -3.672113         0.612172         0.092425
C         -2.335931        -1.508321         0.353577
C         -0.974975         0.927056         1.542263
C         -3.662794        -0.914237        -0.060050
C         -2.555462         2.805056        -0.389973
C          2.492826         0.925249         0.164289
C          3.317492        -0.303091         0.316498
C          2.989118         2.243524         0.640668
H          1.321073        -2.077381        -2.202700
H         -1.268353        -0.929207        -1.365729
H         -2.443493         1.052972        -1.598096
H         -0.095234         1.296279        -1.777866
H          0.198118         2.372059        -0.411492
H          0.358528        -1.531894         1.150621
H          0.113665        -2.621488        -0.191871
H         -3.735843         0.870904         1.152585
H         -4.574086         1.015730        -0.372919
H         -1.749558         0.420835         2.118029
H         -0.014103         0.566853         1.907307
H         -1.026557         1.991810         1.770110
H         -4.456542        -1.387032         0.517270
H         -3.816020        -1.169557        -1.115122
H         -2.582518         3.116341         0.655715
H         -1.733170         3.327795        -0.878047
H         -3.481031         3.149534        -0.854782
H          3.256369         2.192392         1.698299
H          3.896484         2.526749         0.102679
H          2.244374         3.026419         0.502584
