37
Coordinates from ORCA-job 3083834 E -584.724052270013
  C           0.15491865717776      2.10917949043944      0.04780439640086
  C          -1.29103310000213      1.62798874744140     -0.14896075514359
  C           1.13687743533887      0.95661030539182      0.02158274525611
  C          -1.75924803833523      0.63349730668902      0.92105246493482
  C           0.51976008906689      3.18304575057851     -0.98397794781925
  C           1.93451420767817      0.66630608313602      1.12369386074797
  C           1.26126325019146      0.13567655762939     -1.10068685136624
  C          -3.14914434954558      0.12935415421860      0.66907978808448
  C           2.82452602750981     -0.40205951773686      1.11025852871235
  C           2.14673926689093     -0.93115538027102     -1.11447956831055
  C           2.94827819730291     -1.22016554197138     -0.00885406679179
  C          -3.49071313260724     -1.00848860675090      0.06051996224739
  C           3.92622992422341     -2.36335817319623     -0.03959472115368
  C          -4.93305688358545     -1.37681421935671     -0.15061324177583
  C          -2.50351468063604     -2.01013274378868     -0.47108658361634
  H           0.21940477633637      2.56440125258580      1.04188714924184
  H          -1.95750830876881      2.49613068586319     -0.15900965454225
  H          -1.38731803469662      1.15994858848563     -1.13311289734898
  H          -1.04960860400331     -0.19252496578722      0.97154117921064
  H          -1.72244394298179      1.12575031796038      1.89877335009380
  H           1.53833488988762      3.54357395716901     -0.83131129257722
  H           0.45502313056119      2.78777060827076     -2.00006286439055
  H          -0.16074025628665      4.03447347635553     -0.91277678553910
  H           1.85281659875598      1.28079964362586      2.01287724934585
  H           0.65150369535768      0.32459088062342     -1.97576593290954
  H          -3.95368973007164      0.78696815233532      0.98986619608388
  H           3.42786317102168     -0.60432063623335      1.98776398930645
  H           2.21615974812101     -1.55431614774681     -1.99902225522762
  H           4.21970248144962     -2.66123967364673      0.96759227757844
  H           3.50306904486969     -3.23519200610041     -0.54201954669296
  H           4.83639763519484     -2.08752266847471     -0.58010068616702
  H          -5.60640265073396     -0.62015913201836      0.25272778540088
  H          -5.15425135883515     -1.50035567846845     -1.21596532378902
  H          -5.16634792651673     -2.33361640419183      0.32828365374988
  H          -2.64805204169188     -2.98489825990145      0.00612032068432
  H          -2.66164687779849     -2.16456131702291     -1.54341124896955
  H          -1.46744430983915     -1.71143288613509     -0.32647567294887
