29
Coordinates from ORCA-job 3083928 E -840.502145413674
  O          -1.98908747985752      0.81048408145501      0.09602644632998
  O           0.28233057347096      2.34347460183527      0.42926807412990
  O           2.71921067759594      1.16908045200297      0.44831811322722
  O           3.01870722288422     -1.47186237318538      0.10510203271743
  O          -4.20506317312006      0.75854682420191     -0.04799261768470
  C          -0.65415359760049     -1.18134646819468     -0.09413832755854
  C          -0.77381791196065      0.19794820853032      0.06834694674370
  C           0.36271361092676      1.00536522818127      0.21974576272233
  C           1.61962428593399      0.40249528843778      0.22753771888357
  C           1.74615198702345     -0.99793169991986      0.07475528089956
  C           0.61761884873379     -1.77583492477394     -0.09119167103307
  C          -1.86858062683030     -1.92856424713694     -0.23887017818572
  C          -3.06875330784892     -1.31734038138993     -0.22290797271363
  C          -3.18606022312569      0.12056891716811     -0.05955977263235
  C          -0.27791541745129      3.13255404007856     -0.62662474830723
  C           3.51638586206395      1.44712316587835     -0.70438838856938
  C           3.20910818944670     -2.87150763090127     -0.01209401874946
  H           0.68792595239535     -2.84673658751800     -0.20918704604861
  H          -1.80296505851385     -3.00362106496239     -0.36193452657567
  H          -3.99882763596017     -1.85530762673624     -0.33177336774110
  H          -0.12232734954876      4.16864579557427     -0.33496910540693
  H           0.24661902296203      2.93634343319781     -1.56642980273444
  H          -1.34274659226598      2.93832793612981     -0.74874208248868
  H           4.34983664854756      2.05418613553492     -0.35804228123334
  H           3.89311916146003      0.52613018549051     -1.15302636873543
  H           2.93718418022656      2.01000423406378     -1.44222320080762
  H           2.71135739658104     -3.40812187820198      0.80087322292800
  H           2.84039575357910     -3.24495891302376     -0.97233322761298
  H           4.28213700025221     -3.03398973181628      0.05144410623719
