33
Coordinates from ORCA-job 3083575 E -992.950846351379
  O           1.93858792658332      2.28792114161909     -0.21342100746632
  O           4.18548508214358      0.87648723184327     -0.32501694059589
  O          -0.60810247073820      2.19557405720890      0.84018347646236
  O          -0.70633379332677     -3.05259158277009      0.45104155228393
  O          -3.11113258576316      2.39011670160097     -0.11388041500691
  C           0.63315671956338      0.29608420717513      0.16542514191939
  C           0.60445575109830     -1.10733078735211      0.20099772234478
  C          -1.90252806686474      0.34778186303680      0.13060079264837
  C          -1.93040815686616     -1.05696966675451      0.13859830619150
  C          -0.62542583973779      1.06539071153833      0.39620700872339
  C          -0.67273090810470     -1.84247099163074      0.29941317887482
  C           1.85677767141661      0.94652583909202     -0.02349221187923
  C           1.78502816583468     -1.83603412013168      0.11627235010586
  C           3.01043116349614     -1.21123374631723     -0.04387285957451
  C           3.03238960488704      0.18582745422163     -0.12919235191521
  C          -3.11289463678270      1.03821589344273     -0.06555441281327
  C          -3.12044553539189     -1.75833712743886     -0.01168432575490
  C           4.28792159298012     -1.99613026994172     -0.15196003404994
  C          -4.29804367717212      0.32211240414577     -0.23763173581122
  C          -4.30367632714538     -1.06270283402463     -0.20212692814926
  C           2.34548648701998      3.05999551862201      0.92150727615393
  H           4.92526721613097      0.26282699732754     -0.39385113670462
  H          -4.00316642978119      2.70090644331585     -0.30902145824273
  H           1.72235470357089     -2.91473706407429      0.16710770512920
  H          -3.09282399047987     -2.83768832282259      0.01846124705208
  H           4.99579579180675     -1.73178678329010      0.64064852897001
  H           4.08995525268133     -3.06308688153545     -0.06874169610612
  H           4.78685397068557     -1.83136823594357     -1.11311436794362
  H          -5.22255073771075      0.86686350444155     -0.39707116852164
  H          -5.23651618328666     -1.59665280715863     -0.32929435015014
  H           1.59492173826586      2.98642004954818      1.70880398087008
  H           3.32277747197726      2.73171853107487      1.28217544941030
  H           2.41186002901029      4.08886467193155      0.57524968354550
