42
Coordinates from ORCA-job 3084331 E -662.360608245604
  O           1.30634127779565     -2.11567993339965     -1.48788645364840
  C          -0.48969480651396     -1.21514255979407     -0.26609572823871
  C          -0.11537229257577      0.24594358536043     -0.59664580271226
  C           0.92531935794140      0.82679964035352      0.39686161639079
  C           0.75620192473065     -2.11121268350905     -0.15270983154686
  C           2.15610044043455     -0.08260272257632      0.45583894830919
  C           1.77801518043078     -1.51477123637346      0.81983829433737
  C          -1.42813814536244     -1.25201269249363      0.94304562029921
  C           1.26767028117575      2.30817510872311      0.11727953831175
  C          -1.35784471629823      1.08912985428494     -0.67871094300567
  C          -2.72932071569247     -0.51168789624590      0.63057602462349
  C           0.41297520387271     -3.54832084433017      0.23101270385542
  C          -2.53200957864582      0.76909560059340     -0.13610402714813
  C           2.14735347812222      2.90661331049395      1.21830131154255
  C           1.89410442136429      2.55057511051156     -1.25819244818701
  C          -3.74594903326385      1.63966008777271     -0.27756110384986
  H           2.10772237033723     -2.65134246451361     -1.48059634601724
  H          -1.04952159567430     -1.60269078613094     -1.12429599396502
  H           0.35292681885133      0.23598906712658     -1.58367307583425
  H           0.46052665197486      0.81538976894951      1.39009954549489
  H           2.65978999263271     -0.08314532181974     -0.51304304488094
  H           2.87181733853735      0.29574194081022      1.18790872249777
  H           1.36320748567118     -1.54434994365212      1.83201408071355
  H           2.66833140081221     -2.15358709276806      0.83485168292497
  H          -1.66221442875724     -2.27848384663292      1.22625503422230
  H          -0.94654751261277     -0.79137471449977      1.80873203572579
  H           0.31858302755891      2.85097438739053      0.14624325203774
  H          -1.28327407712837      2.01982951119186     -1.23215851308503
  H          -3.39465460690414     -1.16216031258419      0.04754837682074
  H          -3.27264371536389     -0.30007213381637      1.55795555165180
  H           0.06491893730703     -3.62502503671777      1.26125714592995
  H          -0.35677730763281     -3.94815461213290     -0.43123778433908
  H           1.30202432336891     -4.17813731170980      0.13853006198946
  H           1.72789272637535      2.71486004366549      2.20901479559182
  H           3.15931718540804      2.49679340264997      1.19738344592954
  H           2.23285662650103      3.98849009015601      1.09526144467946
  H           2.85981356647378      2.04913809251722     -1.35142331695598
  H           1.25641770560986      2.19602321941189     -2.06898416979285
  H           2.06405280801627      3.61810579359655     -1.41449856355395
  H          -4.11278473007341      1.96441552362292      0.70158432480848
  H          -3.53756280192734      2.52687154764794     -0.87615325326065
  H          -4.56715446687724      1.09202545887014     -0.75204315866615
