40
Coordinates from ORCA-job 30875 E -548.989099351649
  C           0.62727684637366     -0.42701714446909     -0.08168967694621
  C          -0.62583538933563      0.43100310014589      0.07286649793691
  C           1.92473001280041      0.34258371907627      0.15275058346693
  C          -1.92319219422893     -0.33850027670317     -0.16251877940825
  C           3.17750567679721     -0.51588230539107     -0.00201717009819
  C          -3.17603716904788      0.51994612699806     -0.00823080831077
  C           4.47368641305728      0.25580764665657      0.23055644295512
  C          -4.47203842055174     -0.25134762887812     -0.24302940221270
  C           5.72810581807568     -0.61141375657754      0.06862361362670
  C          -5.72648552106432      0.61584889851665     -0.08115226791804
  C           6.99373373365796      0.14009768841207      0.34218021556278
  C          -6.99196200344214     -0.13520298274475     -0.35657666836610
  C           7.97102405545118      0.34191352569082     -0.53267521797916
  C          -7.96988821578532     -0.33800320589486      0.51733602950704
  H           0.57616284086117     -1.27069119227636      0.61604154618930
  H           0.64354585636472     -0.86565063525063     -1.08596300041710
  H          -0.64252294885508      0.86906414691346      1.07736912556967
  H          -0.57450529012241      1.27496853739252     -0.62450008683057
  H           1.97604477897825      1.18613728468239     -0.54494088621234
  H           1.90871946509081      0.78109545797652      1.15705630844971
  H          -1.90658996612491     -0.77680263164914     -1.16689848964184
  H          -1.97499636338143     -1.18219643764712      0.53498724302132
  H           3.12785257204461     -1.35888638393667      0.69664743109158
  H           3.19329655595130     -0.95500655806566     -1.00602948567557
  H          -3.19284184688731      0.95818221329735      0.99613536495336
  H          -3.12555537013764      1.36355319363456     -0.70613324943231
  H           4.53107119791747      1.09828354618468     -0.46600035220583
  H           4.46272663948591      0.69108085637291      1.23594458076336
  H          -4.46014721239396     -0.68532562670009     -1.24895218387118
  H          -4.53026549538258     -1.09469430460600      0.45242245620970
  H           5.65547684224459     -1.46074744211641      0.75896575562391
  H           5.75928066312659     -1.02990938575849     -0.94170355407752
  H          -5.75836351119743      1.03335989465242      0.92954249021413
  H          -5.65319950734137      1.46590997059401     -0.77055004591699
  H           7.08836335561406      0.55828686863598      1.34229867302775
  H          -7.08586134063455     -0.55219150186901     -1.35725923064601
  H           8.85921651863127      0.90508141030907     -0.27520593124383
  H           7.91783902999990     -0.05351755944368     -1.54144305874797
  H          -8.85794380386132     -0.90078515927931      0.25856093310184
  H          -7.91739330274808      0.05623203311494      1.52660025488737
