37
Coordinates from ORCA-job 30874 E -509.685433476650
  C           0.00055685632073     -0.50805897799524      0.14884477271635
  C          -1.27598817571166      0.20726192831164     -0.28638531905922
  C           1.27713632869863      0.20763738460407     -0.28566932510080
  C          -2.55237547492125     -0.50879381018239      0.14789949508643
  C           2.55356479993727     -0.50770903595078      0.14951225093820
  C          -3.82748714047942      0.20874670795703     -0.28675724232687
  C           3.82870295144446      0.21004297931231     -0.28465152242619
  C          -5.10568579447103     -0.51260177166015      0.15790997978614
  C           5.10687074873513     -0.51092641160690      0.16067084688368
  C          -6.35216927873722      0.17169709905434     -0.31054811331308
  C           6.35342052794379      0.17356889501271     -0.30728042578116
  C          -7.29373820586478      0.67530470559857      0.47750685337177
  C           7.29483862009774      0.67696719244080      0.48108415284275
  H           0.00028277927698     -0.61656746508839      1.23944257798874
  H           0.00082695919390     -1.52631918695481     -0.25659031005287
  H          -1.27657934465640      1.22515836619699      0.11958497594286
  H          -1.27572078746624      0.31625386057227     -1.37691625815176
  H           1.27744840725040      0.31647446738138     -1.37623445741255
  H           1.27700039471564      1.22567581246976      0.11997061126674
  H          -2.55319570456771     -1.52659011345977     -0.25875404546110
  H          -2.55268682244713     -0.61819156738923      1.23836141044341
  H           2.55325967643098     -0.61661765523147      1.24003672043553
  H           2.55499808556180     -1.52568670047113     -0.25669275867213
  H          -3.83403311919589      1.22599542622964      0.11749035002987
  H          -3.83239375920956      0.31364873179401     -1.37732080362623
  H           3.83407577003747      0.31465323764911     -1.37524725541919
  H           3.83483661501908      1.22736580197592      0.11941156429475
  H          -5.08381337601672     -1.53529412104941     -0.23812180740132
  H          -5.12028872637475     -0.59853703306492      1.24843332801594
  H           5.12098757730859     -0.59674997113751      1.25121468655848
  H           5.08544509892974     -1.53367625390669     -0.23524999397677
  H          -6.46338197924213      0.26504720073343     -1.38896884455656
  H           6.46483929546184      0.26719392963179     -1.38565829630465
  H          -8.16920663642033      1.16958548329587      0.07552398653896
  H          -7.22273930090532      0.60806736281133      1.55790171078225
  H           8.17039417218244      1.17132090631635      0.07938256689733
  H           7.22362096214089      0.60947959579948      1.56145193822230
