31
Coordinates from ORCA-job 31039 E -580.325790369695
  O          -6.22112813195653      0.17929478211170      0.47889578050767
  O          -5.03347922085801     -1.40639804942887     -0.51074806007330
  C           0.02314164213021      0.07139256022446     -0.23326801984632
  C           1.24896653386097      0.92229865118274      0.08840080942246
  C          -1.28845220700975      0.69650519303710      0.23482842518637
  C           2.55976910173585      0.29143721271651     -0.37371081054143
  C          -2.50918769870548     -0.15879509182111     -0.09313161184454
  C           3.78053630496662      1.14870462578739     -0.05569117344813
  C          -3.81082762679896      0.47385456058078      0.38102641841633
  C           5.10917753875775      0.51530823069700     -0.50279674511775
  C          -5.04003552620449     -0.35593503029416      0.06166017544805
  C           5.41508783091165     -0.73288261307685      0.18578966351245
  C           5.65035275386195     -1.75687043021456      0.76651746937455
  H          -6.07146020451057      1.02373921125407      0.92325866424791
  H          -0.02506616841794     -0.10169382843257     -1.31403181225808
  H           0.13701263152808     -0.91622236547506      0.22674181217917
  H           1.13567206993277      1.90961894371726     -0.37425883770842
  H           1.29452672330258      1.09697536142500      1.16939000950247
  H          -1.24067327381383      0.86729908662544      1.31669115308449
  H          -1.40083935589109      1.68601099093346     -0.22369815916065
  H           2.67733927128130     -0.69017731087819      0.09444796609028
  H           2.51607481456952      0.11247200868219     -1.45426374022232
  H          -2.56824957497055     -0.32984656026319     -1.17053453750880
  H          -2.40711044461223     -1.14696502119487      0.36149986479835
  H           3.68557459570453      2.12129802787421     -0.54795276359660
  H           3.82506875425143      1.34204058026562      1.01984731726876
  H          -3.78390572237262      0.63888586481299      1.46462208052538
  H          -3.94282389874367      1.46355048107852     -0.07212184709057
  H           5.07978432914802      0.32950171982802     -1.58159353698323
  H           5.92683752213241      1.22191035530825     -0.33331640382287
  H           5.86198263679011     -2.66365214706330      1.27761244965831
