26
Coordinates from ORCA-job 31214 E -501.977752398453
  O           1.31840114065384      0.47086308659714     -0.01708004056427
  O          -0.76409055096531      1.09256071095621     -0.65313104448115
  O          -0.34348438179625     -1.04430390550820      0.16585211357416
  C           0.13233393444539      0.04149258425777     -0.59118804384523
  C           2.38907118969724     -0.47007531789719     -0.08307992366437
  C          -1.08108699802750      1.72011746894241      0.59932200892946
  C          -1.44453934470482     -1.72867509549479     -0.42569837010063
  C           3.64207539901212      0.20776240298647      0.42578615229363
  C          -2.22262457815732      2.68104978425852      0.35083334348664
  C          -1.77459162060067     -2.92877657481777      0.43463534640829
  H           0.28517692691635     -0.27749701816666     -1.63409920806413
  H           2.14392211498293     -1.34954263142330      0.51746405199989
  H           2.51797536303374     -0.79769036534097     -1.12363694838444
  H          -1.35802152384285      0.95628235079616      1.33038590931366
  H          -0.19852234704016      2.24316378639649      0.97358025058809
  H          -2.30277888321873     -1.05379226633782     -0.50377489079055
  H          -1.17689512894197     -2.04093876078805     -1.44403144375149
  H           3.50741202103632      0.53372251968972      1.45821754794358
  H           4.48472211009290     -0.48553078152274      0.39056475189114
  H           3.88454289845672      1.08072213516997     -0.18185359501770
  H          -2.48790519623107      3.19494846245453      1.27703516801978
  H          -1.94105392707336      3.43052307767958     -0.39042247564318
  H          -3.10421598974941      2.15186181313079     -0.01489199625389
  H          -2.04119790014052     -2.61454254744254      1.44485293107505
  H          -2.61810810303706     -3.47654207904503      0.00994848984058
  H          -0.92038062480054     -3.60433583953069      0.50002291519707
