18
Coordinates from ORCA-job 31244 E -460.046077766763
  O          -2.73336399786903     -0.27428050636765     -0.05618235365008
  O           3.58369013147638      0.77765666958545      0.09861114725597
  C          -1.38464547447210     -0.17812325341771     -0.02802729397023
  C           1.40509232309358     -0.18409979067403      0.02242877751029
  C          -0.68689108702614     -1.39008859416093     -0.06131538647655
  C          -0.68372983337667      1.03252123432299      0.03064300259015
  C           0.69230839718770     -1.38607480768325     -0.03612462453123
  C           0.69967285372339      1.01906221271652      0.05527297088857
  C           2.87344834201517     -0.20160971435114      0.04843868938216
  C          -3.50547381207286      0.91828828836555     -0.02508525787699
  H          -1.25165784742613     -2.31131834704384     -0.10649884702943
  H          -1.20906219487431      1.97533898981453      0.05690156210341
  H           1.23395442867047     -2.32475586644848     -0.06188707967158
  H           1.25808127748630      1.94497609665166      0.10056117089125
  H           3.31930878049330     -1.21852046039416      0.01778750670961
  H          -3.32463257233068      1.48318765613820      0.89326652189322
  H          -3.29197946159481      1.55081143282042     -0.89083037978965
  H          -4.54439325310357      0.60026776012587     -0.05609612622888
