27
Coordinates from ORCA-job 31266 E -502.962094170808
  O          -1.79942377752274      0.29544505003372      0.12848902449381
  O          -0.69919207899421     -1.62695977207027     -0.26439816045186
  C           3.08517883791297      0.52927880444160      0.04343994859523
  C           1.85237689792663     -0.36047343872833     -0.09009806215254
  C           4.39777480516415     -0.23144536983559     -0.13068998212851
  C           0.55350485757401      0.41426050706461      0.08653685534980
  C           5.62866778574381      0.66092881907756      0.00373254033090
  C          -0.68241585193379     -0.44331966620314     -0.04084157960973
  C          -3.05261395009713     -0.42035138483383      0.02937824379602
  C          -4.14881395532415      0.52975532608514      0.36944425897040
  C          -5.19241725280488      0.76365002405909     -0.41398757537239
  H           3.03584804811219      1.33684598422814     -0.69647324373659
  H           3.07951727881273      1.01804526743405      1.02485915942867
  H           1.85050615227254     -0.84933364456189     -1.06766456793034
  H           1.89425813964520     -1.16705664849579      0.64635648040981
  H           4.44587631496374     -1.03757954418768      0.60872937983247
  H           4.40249854330596     -0.71876751804727     -1.11118993959472
  H           0.51627661518310      0.90550033154567      1.06374332872484
  H           0.47217165077288      1.22157265835242     -0.64779855909103
  H           5.66465565699736      1.13549032130777      0.98769165678406
  H           6.55126830226433      0.09165287926891     -0.12482063053650
  H           5.62125865618779      1.45655529527370     -0.74566513266843
  H          -3.16169949798764     -0.82159202082873     -0.97917925336225
  H          -3.02128629034765     -1.26344485457698      0.72397531964432
  H          -4.06494920033582      1.02415879626523      1.33252959386305
  H          -5.98749285158619      1.43456885329942     -0.11528766076283
  H          -5.29214183590524      0.28592294463247     -1.38226944282565
