28
Coordinates from ORCA-job 31289 E -428.941794391143
  O          -4.73907528418988     -1.10727761486497      0.00899682351534
  C           0.49864596472358     -0.25699429078011     -0.00296396618174
  C           1.82022486237649      0.50699538131847     -0.00853841382670
  C          -0.72837697300554      0.65114158100621     -0.00645868840471
  C           3.04752204635046     -0.40068610375696     -0.00486129843136
  C          -2.04619816517101     -0.11928694918538     -0.00081987940839
  C           4.37053497445033      0.36202316330410     -0.01096944397142
  C          -3.26315810337943      0.79427146879503     -0.00448362708801
  C           5.59085634555371     -0.55492186928274     -0.00756724938768
  C          -4.59078599807205      0.08751072459296      0.00127232657243
  H           0.45930895027812     -0.91985343884250     -0.87459535289027
  H           0.46127246687543     -0.91049075692417      0.87579331288393
  H           1.85666488305457      1.16053356923194     -0.88774087224803
  H           1.85846323232899      1.17016287277446      0.86334282017631
  H          -0.68911705909631      1.31432666754154      0.86556302487392
  H          -0.69107491816986      1.30496211354172     -0.88560358898171
  H           3.01188837183907     -1.05428788644108      0.87437994810175
  H           3.00965371393994     -1.06441072839671     -0.87638596680491
  H          -2.09355034560310     -0.78250825521507     -0.86861139224924
  H          -2.09166251387361     -0.77303590929757      0.87421598921384
  H           4.40501124980889      1.01462203976267     -0.88986314064075
  H           4.40744473818403      1.02453284326032      0.86037368511313
  H          -3.25896615708822      1.47146885145435      0.86050941607928
  H          -3.26115116539439      1.46183180902213     -0.87691541767552
  H           5.59786925628307     -1.19610994206476      0.87754692948387
  H           5.59532008739506     -1.20590166993416     -0.88553247317385
  H           6.52137040098711      0.01620599957095     -0.01217225988967
  H          -5.47519686138545      0.76177732980934     -0.00197324475984
