43
Coordinates from ORCA-job 31291 E -625.460107422203
  O          -7.86682942050012      1.18189181172880      0.12193627020354
  C           1.20909346914427     -0.47384566230498     -0.01978792010947
  C          -0.09652334396826      0.31565587663493      0.02937647330670
  C           2.45532874288738      0.40701787572091      0.01761504785617
  C          -1.34265988161030     -0.56533307700434     -0.00812151312116
  C           3.76108143709415     -0.38229832640074     -0.03170202913356
  C          -2.64780828818121      0.22479400694835      0.04093321592113
  C           5.00735580959945      0.49861261374663      0.00524890255003
  C          -3.89364737728592     -0.65652440163728      0.00343892617069
  C           6.31320007903623     -0.29038856879804     -0.04376312497614
  C          -5.19498923347001      0.13992432414589      0.05264026460147
  C           7.56051279369740      0.59001281699121     -0.00812212300620
  C          -6.43083390681742     -0.74710463967222      0.01491541888089
  C           8.86012238573016     -0.20916415813886     -0.05704614412435
  C          -7.74338623800500     -0.01416624910072      0.06047791115340
  H           1.23821027068784     -1.17719275338997      0.82034332274479
  H           1.22691409936745     -1.08694668709762     -0.92817007021412
  H          -0.11454173541197      0.92870472377687      0.93767191434520
  H          -0.12577170614634      1.01899385458245     -0.81063108060336
  H           2.42608738331092      1.11042078702093     -0.82241152559302
  H           2.43750614545255      1.02010627609288      0.92594858665353
  H          -1.32469496310473     -1.17837550959761     -0.91655921255463
  H          -1.31354791013117     -1.26858110241964      0.83211328723237
  H           3.79040930147383     -1.08553157693883      0.80850713650607
  H           3.77870917975883     -0.99557644757521     -0.93995155169663
  H          -2.66671138550090      0.83772171180431      0.94904078212246
  H          -2.67785657683164      0.92785220731172     -0.79900752970316
  H           4.97799815353217      1.20163642973216     -0.83513166507411
  H           4.98951723734842      1.11209182847898      0.91336092638005
  H          -3.87476458366293     -1.26981561035527     -0.90501986594891
  H          -3.86369918389199     -1.35984813284604      0.84380278270217
  H           6.34366216993146     -0.99303739054054      0.79713244871337
  H           6.33137183908583     -0.90470932110567     -0.95152406977703
  H          -5.22204383406268      0.75364885137311      0.95694789548777
  H          -5.23311005482377      0.84309695089656     -0.78356835305780
  H           7.52952494050447      1.29106479334953     -0.84897864715519
  H           7.54150627532749      1.20351578515815      0.89892469152886
  H          -6.44726571647798     -1.37408193973468     -0.88700678668769
  H          -6.43649376609573     -1.46300220855892      0.84813829972113
  H           8.93143528351556     -0.89518121122251      0.79089244841050
  H           8.91922698935160     -0.80726527392523     -0.97000566902084
  H           9.73422317472699      0.44458655642726     -0.03051030286044
  H          -8.64162505458436     -0.66934683355670      0.03289823122552
