55
Coordinates from ORCA-job 31307 E -1367.514972261844
  F          -1.34270659382231      0.08666459017228     -1.23629339564233
  O           2.96280020421718     -0.21127364938481     -1.73806488152390
  O          -0.49734218267752      2.22805907886349      1.52778004431832
  O           3.89859660364580     -2.50958219327391     -0.81550300077166
  O           4.82729291328295      0.52063373563528      1.11225233849811
  O           5.73889135864134      2.46611926023446     -0.41731936626468
  O          -6.06771717987908      0.30237305565315     -1.79342201288511
  C           1.73836938586312      0.19234102061951      0.39273470958990
  C           0.87973561186412     -1.06145322734910      0.11925936656507
  C          -0.52531380898978     -0.98316995927934      0.70851224063462
  C          -1.23535861702645      0.27645731704520      0.17010521031454
  C           3.06805801360139     -0.24840442772894     -0.31245601481268
  C           1.04415422571833      1.41278069305254     -0.21418407476926
  C           1.79647173389850     -2.22810519675811      0.49515063132890
  C          -0.40746775943807      1.58834633216552      0.26109677660900
  C           3.23291075899745     -1.73633021995224      0.15641550703645
  C          -2.71524904731142      0.39101164373184      0.68731031746217
  C          -1.32313366403583     -2.24890869515667      0.37411541635172
  C           2.00114852853187      0.38764553273000      1.89873672727766
  C          -2.79495552814188     -2.15548289415463      0.78907973997798
  C          -3.41390947323779     -0.89063125200793      0.27714147525768
  C           4.26502776659802      0.62002292150269      0.04306129675419
  C          -2.81491821948692      0.52278822208947      2.23258338492607
  C          -3.36722590518690      1.61651601966461      0.11234897028031
  C          -4.49314264474167     -0.89377696311686     -0.51121721491637
  C           4.73713660582564      1.65054648837277     -0.95784563043375
  C          -4.44408207002861      1.59342092660961     -0.67003418670612
  C          -5.08918181495598      0.32909858794462     -1.06165824756633
  H           2.04383025728902     -0.32870104513468     -2.00370913165740
  H           0.17585256204002      1.88178703003578      2.11994810300130
  H           3.71160317260405     -2.10753379712023     -1.67601146521391
  H           5.96580787585968      2.08536152270924      0.44637261337561
  H           0.71650106804422     -1.11554735608596     -0.96292612333832
  H          -0.45919112780911     -0.89070767833226      1.79462566251815
  H           1.57865729515204      2.33762776315322      0.01471986484201
  H           1.02152748318365      1.32568311160664     -1.30074927183037
  H           1.71356349335764     -2.46757089725789      1.55731996013774
  H           1.58064193513712     -3.13733679448416     -0.06250872126582
  H          -0.89082747580825      2.27662908453902     -0.43109056478156
  H           3.86247200226933     -1.75106976273478      1.04360926628506
  H          -1.26974927929800     -2.41918622572458     -0.70347207654239
  H          -0.85553787214148     -3.10781267587090      0.85801517867455
  H           1.08041002747036      0.29923267356369      2.47607774333692
  H           2.68861204498987     -0.34914597726042      2.30357255647805
  H           2.44403423618978      1.36425741614176      2.09302175607051
  H          -3.34706034993908     -3.01728175549421      0.41343559106157
  H          -2.86512514479718     -2.18541100224189      1.88097854200337
  H          -2.24651821869684     -0.24705589678860      2.75065556035877
  H          -2.45427388637933      1.49242843660019      2.55879070179595
  H          -3.86160654847407      0.41746538518259      2.51865902712597
  H          -2.93577761010728      2.56399559883507      0.41320552388668
  H          -4.97971558535448     -1.82183197129493     -0.78863326202232
  H           3.88010575368420      2.25244897529779     -1.28206209492487
  H           5.08896895785991      1.11671551552543     -1.84977016261366
  H          -4.90128426805131      2.50204057471054     -1.04168490365211
