45
Coordinates from ORCA-job 31415 E -1092.156885932899
  O           0.06658099198884     -2.45551885174905     -0.46572235910540
  O           2.75092126375025     -3.00147256651812     -0.38390484169338
  O          -4.37464769194366     -0.96700644641327      0.39240006465310
  O          -4.90392761612208      1.51392593134115     -0.39221488461719
  N           2.03409593449951      3.36144462399589     -0.00739350007995
  C           0.99067827488598      2.36024795682681      0.17455343807459
  C           1.46739568533180      0.92095435079749      0.06243107102899
  C          -0.14844991585436      2.58541085961559     -0.80733993924879
  C           2.82524597569865      0.61909418289654      0.11868387134875
  C           0.49936435530681     -0.09322715795371     -0.10358867391067
  C           3.86109366430436      1.70727716736416      0.28583624614369
  C          -1.25395045114801      1.60721250758858     -0.52919594680563
  C           3.23936234054668      3.02601680542302      0.74119080124975
  C          -0.92667437082037      0.29555385686784     -0.15628745793416
  C           0.94429804083033     -1.41402525361455     -0.24983999104917
  C           3.23470837799969     -0.70673226924859     -0.00035252712689
  C           2.30898604393199     -1.71489680083706     -0.18977657236565
  C          -2.58603156495063      1.99962701358421     -0.60974644414351
  C          -1.96742878152159     -0.58803335377031      0.17222541436077
  C          -3.28615306743940     -0.18581516481552      0.09516642135754
  C          -3.60650677431860      1.11612614739745     -0.31091188897465
  C          -0.12728706180482     -2.76183252472459     -1.84761942423094
  C           2.48335383819304     -3.90077266933979      0.69275403241871
  C          -4.13986424118952     -2.29969141009947      0.81478830409694
  H          -5.45602011202105      0.76511485660268     -0.12682252079930
  H           2.25746329126071      3.43809007643185     -0.99542944389195
  H           0.58517242208420      2.50369613759709      1.18620367044930
  H          -0.50931400751330      3.61116445504954     -0.72649412799217
  H           0.23349042564930      2.45044346724607     -1.82875358270471
  H           4.63004544001763      1.37970933814452      0.99167331739725
  H           4.37296716439689      1.86353711722804     -0.67127230821995
  H           3.95763661729610      3.84288736488569      0.64805013956716
  H           2.96257887818670      2.96245525871081      1.79798389294523
  H           4.28488140556917     -0.96954542218245      0.03850774854677
  H          -2.84484489520861      3.01111718930761     -0.89608789871028
  H          -1.72509612251026     -1.58877978296631      0.48283260782929
  H          -0.81056659180143     -3.60872098465799     -1.88675775881631
  H          -0.57114935280513     -1.91015147851213     -2.37052729173938
  H           0.82074010518287     -3.03275580081527     -2.31739115811559
  H           2.97937789721635     -3.55925571878516      1.60664299169519
  H           1.41087162475567     -3.99473498755103      0.86990210058762
  H           2.89421789453764     -4.86444531776029      0.39686705372173
  H          -5.11880065609393     -2.74053505988041      0.98781290160121
  H          -3.61164777931100     -2.86951301753824      0.04516523720514
  H          -3.55865289904342     -2.32305562516926      1.74077421599688
