53
Coordinates from ORCA-job 31411 E -1433.303271546611
  O          -0.53883702341194      0.77173045560448     -1.14855179386973
  O           2.14516458172162     -2.10184737201741     -0.22261956989723
  O           5.04560105408803     -1.43252598341073     -0.92616706501250
  O           5.93709698829969      0.64232447354261     -0.49568838322986
  O          -4.96063719733195      0.67700120695255     -0.81036383167771
  O          -2.23459321661640      2.10921522806923     -1.73988511872835
  O          -5.72751905420381     -1.52692223472904      0.62918423021491
  N          -0.10279150206007      0.82581931278586      1.72920855335809
  C           0.53772038316882     -0.15959003672085      0.86839112298772
  C          -0.32337151702507     -0.43132950912743     -0.38889998845386
  C           1.99127620493698      0.13818035006921      0.53225091845496
  C           0.26483112773727      2.20445876030245      1.40483117811404
  C           2.56206363163666      1.38105583325943      0.79799563845139
  C           1.76621414686442      2.45547837739178      1.49712441381856
  C          -1.70433416100655     -0.90045062253730     -0.05225581646708
  C           2.76554872738984     -0.90008194122346     -0.03894994487856
  C           0.03586449463690      0.51190223874174      3.14214530194944
  C          -2.62366106530196      0.00574094279666     -0.56340205183165
  C           3.90323787452455      1.64205445948951      0.47366926329305
  C           4.07447784759013     -0.61688694267650     -0.37122950693486
  C           4.61729162109921      0.63236320074882     -0.11250680166287
  C          -1.86550542659796      1.08986366241648     -1.22131448598990
  C          -2.10354406152124     -1.99874713669485      0.68302488997911
  C          -3.99732852564133     -0.16032626233449     -0.35728718496856
  C          -3.46357212454736     -2.16035279978717      0.91780604538545
  C          -4.40243035413278     -1.26249100687676      0.41507670125193
  C           6.10807933682429     -0.54138717316019     -1.27050096919263
  C           2.94158916728688     -3.28264598453317     -0.31953413452694
  C          -5.02874878985644      0.91044912075523     -2.22532600289833
  C          -6.41547304222447     -0.60137104254868      1.47496527255126
  H           0.52085144829074     -1.11397330567940      1.39968471369149
  H           0.20368794424699     -1.13348003188464     -1.03351148718111
  H          -0.07302731902453      2.42550336316685      0.39552184150422
  H          -0.27778296543020      2.86630296158404      2.08185597057430
  H           2.00440705465997      3.43154089532327      1.06760000417129
  H           2.08029812095389      2.49857487798365      2.54594063990168
  H          -0.49282531016528      1.26402787740950      3.72973509857497
  H          -0.42391009012315     -0.45655311365012      3.34606082542884
  H           1.07837900443587      0.47394932466401      3.49585325809332
  H           4.35185756059126      2.60450186451091      0.67699790801795
  H          -1.38760849815972     -2.70734970936897      1.07808770541957
  H          -3.83527355361379     -3.00287474286737      1.48650032188659
  H           7.06229715912662     -1.00412323942248     -1.02553887775609
  H           6.04123249389447     -0.29223422518320     -2.33731706055845
  H           3.64750783014592     -3.34207768469702      0.51134227587869
  H           2.24172420354984     -4.11380692838267     -0.26685129328703
  H           3.48910867488306     -3.31785669596566     -1.26046435211172
  H          -5.04426906538974     -0.04363100574537     -2.75794567800606
  H          -5.96869848953122      1.43250869191973     -2.39000972205787
  H          -4.19500011986647      1.52428607636579     -2.55876612942325
  H          -5.95894889610624     -0.58449475927582      2.46952828987289
  H          -6.40974334263043      0.40186939657072      1.04882289953769
  H          -7.43830097106377     -0.96473346192376      1.55201696823882
