26
Coordinates from ORCA-job 31423 E -615.662354333120
  C           0.70976357817874      0.00000429365516     -0.00001982090235
  C          -0.70976275337216     -0.00000856857205     -0.00000964782812
  C           1.42184285110229      1.23008784112279     -0.00002913366041
  C          -1.42186973145711      1.23006003141061     -0.00001608483260
  C           1.42187125962453     -1.23006265173872     -0.00001580250663
  C          -1.42184593329331     -1.23008833178129      0.00000633796795
  C           0.67740960602682      2.45303770654629     -0.00003541200776
  C          -0.67745883011260      2.45302457096479     -0.00002871379058
  C           0.67745818043217     -2.45302555991256     -0.00000186162197
  C          -0.67741066172826     -2.45303796949156      0.00000594148627
  C           2.81949456259656      1.20529592907529     -0.00002348000828
  C          -2.81952217824682      1.20523612554735     -0.00000983637851
  C           2.81952358926684     -1.20523539921054     -0.00002262120796
  C          -2.81949842832461     -1.20529539824552      0.00002441715802
  C           3.50750807067886      0.00003924337124     -0.00002286303910
  C          -3.50750800906117     -0.00003674470657      0.00001416289647
  H           1.22541568976835      3.38760766650201     -0.00004957907204
  H          -1.22548304518882      3.38758522079328     -0.00003595878315
  H           1.22548249412036     -3.38758776529210     -0.00000479569233
  H          -1.22541438702792     -3.38760969059462      0.00001273469881
  H           3.36343831611632      2.14204198193146     -0.00001388774109
  H          -3.36348600507909      2.14197022444416     -0.00002149552354
  H           3.36349320535764     -2.14196686773324     -0.00002588426353
  H          -3.36344199467823     -2.14204094211457      0.00003882594160
  H           4.59007091372351      0.00005283074788     -0.00001861926084
  H          -4.59007035942288     -0.00004777671897      0.00002307797167
