23
Coordinates from ORCA-job 31493 E -463.450362381585
  O          -3.27033124838295      0.20160484122074     -0.30194110303743
  C           1.47559534189262     -0.02521095279286      0.32421634233026
  C           2.71040805925994     -0.86180109823427      0.53812843252034
  C           0.21769631810654     -0.61818741398245      0.24549468076988
  C          -0.92992536655121      0.13708355585621      0.00107089609478
  C           1.56529126135957      1.35500382846919      0.15397944625571
  C          -0.81310082588587      1.51861489463494     -0.16786577080512
  C           3.32662263383649     -1.33908958866070     -0.78238534174856
  C           0.43045463880421      2.12195780579195     -0.09010788319124
  C          -2.28947622275522     -0.48049924526553     -0.08398515670163
  C          -2.42131913109722     -1.97654702621463      0.10613952873101
  H           3.45067900716504     -0.28215933370385      1.09517300121100
  H           2.46100183704847     -1.72815654871113      1.15601429098218
  H           0.14148040980621     -1.68931000877882      0.38170344137667
  H           2.53494437220003      1.83555796039477      0.21692793131451
  H          -1.70921282562872      2.09407384361683     -0.35383323363544
  H           4.21910551803456     -1.94180910986501     -0.60303346747911
  H           2.61436420072167     -1.94424443848143     -1.34677685299571
  H           3.60845885480062     -0.49022926812780     -1.40834970788566
  H           0.52120908054317      3.19346652398838     -0.21544023269201
  H          -2.05063060308585     -2.27771968015956      1.08847838412451
  H          -3.46944335331013     -2.24982782317105      0.01410399797382
  H          -1.83686795688200     -2.51617171782392     -0.64246162351274
