47
Coordinates from ORCA-job 31677 E -1328.712398975745
  Cl          1.89699146155294      3.91873102976700     -1.68595772417224
  O          -1.82439491178018      0.06870003655074      0.31541558234807
  O          -0.30068379536284      2.91929466538347     -0.00588231892590
  N           0.39721019245251      0.77783390007855      0.30029487685376
  C           1.35597953562596     -0.25746744236071      0.03504444221148
  C           1.21114812062418     -1.07158498295919     -1.09698100188197
  C           2.43613093270656     -0.41654530048789      0.91784181688559
  C           0.06198860239939     -0.93230755772082     -2.06426313189682
  C           2.61284110709672      0.44492870245572      2.14383475510937
  C          -0.74693448085580      0.49147032656619      1.12446220228951
  C           2.17486698191202     -2.05222207505653     -1.32900112383472
  C           3.37192917191229     -1.41122812598847      0.64812377077185
  C          -4.14509296956205     -0.42641038438799      0.06320570998649
  C          -3.04921414069950     -0.01581931192735      1.02621390790996
  C           3.24553350876265     -2.22492614245936     -0.46743548054559
  C           0.50491283245865      2.04552612760461     -0.23055402650185
  C          -5.51174370221541     -0.52836812419914      0.73712682681885
  C          -0.91820437001525     -2.10776696984903     -1.98168694166698
  C           2.18522500555916     -0.26207933205134      3.43628602769884
  C           1.73502833434392      2.24091505872417     -1.11756812967495
  C          -6.61619373313737     -0.94068689205345     -0.23254583392987
  H          -0.48397958527906     -0.01090143542857     -1.87593792113796
  H           0.46709078573094     -0.87184145462477     -3.07890111127108
  H           3.66742762043399      0.72027793190012      2.22549142163586
  H           2.05315983039436      1.37389236740163      2.03951550579761
  H          -1.02096807593415      1.39991048817742      1.66719827629533
  H          -0.47479453760613     -0.29965463578729      1.83047409973236
  H           2.08233713831901     -2.68190470524328     -2.20556512362671
  H           4.21542822088162     -1.53723235583899      1.31637987557824
  H          -4.18273280153547      0.30290432735250     -0.75101478408014
  H          -3.87947977532707     -1.38739399807086     -0.38703198818241
  H          -2.96202197773877     -0.74795538164897      1.84297205364545
  H          -3.28029122029899      0.95812537554080      1.47944315438955
  H           3.98739529985706     -2.98704350654526     -0.66973088812436
  H          -5.45990331096067     -1.24985710238445      1.55937669534399
  H          -5.76557134549760      0.43501165621614      1.19116379222542
  H          -1.35422007801743     -2.16220396267180     -0.98494013082094
  H          -1.72963292393698     -1.97936988196747     -2.70033634628217
  H          -0.42156265691317     -3.05599400726885     -2.19544114635395
  H           2.35151424934523      0.38178008851995      4.30173274841134
  H           1.12711646200857     -0.52641669099731      3.41101976353807
  H           2.75203323520128     -1.18302073815020      3.58297830263339
  H           1.66919331327548      1.59628823340321     -1.99139975070664
  H           2.64225520855822      1.98024636744863     -0.57801789829457
  H          -7.58320516742329     -1.00646594405239      0.26947446333178
  H          -6.71137198417752     -0.21925997804790     -1.04758978655339
  H          -6.40389460713799     -1.91588926286121     -0.67760148297695
