36
Coordinates from ORCA-job 32045 E -508.759434818856
  O          -0.00223734025877      1.62049840322200      0.62986258896871
  C          -0.00064008396873      0.39174859476428     -0.10718108943637
  C          -1.26873239869094     -0.41620847588299      0.15927822782153
  C           1.26788126494555     -0.41460469650247      0.16205214027785
  C          -2.55664221766473      0.31316613758706     -0.21133753469707
  C           2.55575925076391      0.31650155756424     -0.20512758487933
  C          -3.81552035761134     -0.48886875809469      0.10748316714273
  C           3.81477943592187     -0.48462486696592      0.11536960859349
  C          -5.10748215170658      0.23209005946068     -0.27088971291512
  C           5.10681411476368      0.23833377816962     -0.25892639947328
  C          -6.36174000153482     -0.57451389312235      0.05488321635718
  C           6.36123373228487     -0.56734453943274      0.06849864329488
  H          -0.00274800892077      1.40323866120146      1.57012082112482
  H           0.00035601345465      0.71451483443303     -1.15339541261311
  H          -1.20671291045942     -1.35847102080716     -0.39545049264748
  H          -1.29086705195919     -0.69077804579849      1.22235691771854
  H           1.28783558458602     -0.68963523349891      1.22506829814645
  H           1.20832141410696     -1.35674779707650     -0.39315814678715
  H          -2.58841127165133      1.27307164183171      0.31041117365868
  H          -2.53843669064587      0.54937220962584     -1.28139810362937
  H           2.53951401132894      0.55376635126361     -1.27499436269198
  H           2.58550137034848      1.27591692635593      0.31763217071394
  H          -3.77633586987622     -1.45403289067205     -0.41137756272314
  H          -3.83462668013409     -0.72302272544816      1.17850076288832
  H           3.83174363158131     -0.72034206154528      1.18608933583292
  H           3.77780097775235     -1.44905209160417     -0.40500216812977
  H          -5.14555695352846      1.19573383926715      0.24781280941663
  H          -5.08866485520418      0.46457075824880     -1.34089541454890
  H           5.09024362562354      0.47237072563615     -1.32863631783564
  H           5.14254934498341      1.20128431093321      0.26122076329314
  H          -6.42173609773924     -0.79272518848304      1.12426027764834
  H          -7.26896333699569     -0.03583753867902     -0.22595189239272
  H          -6.36367568466022     -1.52973655701782     -0.47645832742819
  H           6.41902042459703     -0.78722229655284      1.13765325416386
  H           6.36552082529260     -1.52168393405585     -0.46441386554278
  H           7.26846894087543     -0.02716817832431     -0.20940278869062
