26
Coordinates from ORCA-job 32594 E -536.031345361610
  O          -0.81878062731876      1.75672244417389     -0.38844142801923
  N          -0.03667275619130     -1.72172121962333     -0.40597273705147
  N          -2.11368001528682     -0.02337279812318      0.28844709403128
  C           2.49075347150721      0.35027703425557     -0.00772542483905
  C           1.39902786585384      0.12215879306287     -1.08255417502684
  C           2.06480752336920      1.36556776525643      1.05337823673657
  C           2.94795495398433     -0.95796751502775      0.63730053029649
  C           0.10134256542928     -0.41361098750567     -0.55199942169968
  C          -0.98001035928117      0.43374270461220     -0.19907926905156
  C          -1.18731616891330     -2.19480403881411      0.08980611066576
  C          -2.21799290005741     -1.34896365121332      0.43987892543496
  C          -1.90441804148352      2.60934226595876     -0.01676087932115
  H           3.34526488204831      0.77253097125948     -0.54801530139290
  H           1.21452633750456      1.06455995536515     -1.59927626210984
  H           1.77606471189752     -0.59832235771746     -1.81060479626250
  H           2.88765174366032      1.56339912591890      1.74351855188295
  H           1.75768120159498      2.31101714626907      0.60478201778648
  H           1.22525005424515      0.98964985463189      1.64356675405593
  H           3.77719829172590     -0.77364259162128      1.32407054008309
  H           2.13985712570731     -1.42517597660220      1.20238158482674
  H           3.27913269211426     -1.67819317334032     -0.11296693442497
  H          -1.27503109888613     -3.26884955908800      0.20065344220695
  H          -3.15042558421221     -1.72641946702244      0.84386850222048
  H          -2.12731709306636      2.51109211790067      1.04603415387457
  H          -1.56800092473447      3.61766388204894     -0.24422315270639
  H          -2.80170785121074      2.36728327498523     -0.58679866219666
