12
Coordinates from ORCA-job 32743 E -306.445340081190
  O          -2.15867650944585      0.67640684138392     -0.25635225201005
  O          -1.16933470107127     -1.21872577770150      0.32394743086365
  C           0.22808749699835      0.74831947839244      0.20324854244479
  C           1.44309888876863     -0.11547718206736      0.33591795359670
  C          -1.06481517181373     -0.04998089717405      0.09651524429281
  C           2.53667445583888      0.02338764875513     -0.39954536716164
  H          -1.91957792351222      1.59796481126644     -0.41891788410466
  H           0.12051641234133      1.38922358332178      1.08886752824657
  H           0.32295759701046      1.41833089108648     -0.65627830564259
  H           1.38346276155509     -0.89541081259611      1.08631420811349
  H           3.39435953723981     -0.62179220164233     -0.26119550682819
  H           2.61587515609049      0.78360661697515     -1.16912659181088
