50
Coordinates from ORCA-job 332427 E -1227.739435881417
  O           0.37589767345981      1.22494894748366     -0.09491716300983
  O           0.47495430416687     -3.43199099995621     -0.74402988162136
  O           5.92783626040321     -0.37876914208541      1.48761827530585
  O          -5.49912515036491      1.81839841877290      1.30994737528254
  O           6.72889053934665      1.19588909488652     -0.64450157267638
  O          -7.10083552239493      0.34757049144780     -0.39922424290344
  C           0.71507729451162     -1.07237545231837     -0.55346313054438
  C          -0.77307365656210     -0.73377171195359     -0.75720705236910
  C           1.22748935874686      0.13258926661842      0.26325986869493
  C          -0.66769031904514      0.77329189190551     -0.96711302499921
  C          -1.66929591911077     -1.11203180476336      0.43612303158485
  C           1.03213230597185     -2.40813817706497      0.08031048442730
  C           2.67765532409722      0.45848895630333      0.02181608496758
  C          -3.11327273261001     -0.74313273900718      0.22123100282811
  C           3.66226975551557     -0.08869343963377      0.83921336289036
  C           3.06954302924021      1.25910937971645     -1.04483656760093
  C          -3.67378418447380      0.37418555706220      0.83604294707334
  C          -3.91991400841644     -1.49150128290208     -0.63243845171711
  C           5.01222262510935      0.13848030019028      0.60949939111332
  C           4.41492108152101      1.50301550453325     -1.28188050675386
  C           5.39478814936952      0.95361352788584     -0.46266614673682
  C          -4.99493276927136      0.74553386632339      0.62369408177794
  C          -5.24272010317845     -1.13479903236347     -0.85627604429806
  C          -5.79435275690884     -0.02300145213872     -0.23040776037969
  C           6.81650974127067     -1.35885918838093      0.95005908668748
  C          -5.85571933597501      2.94866261915813      0.51286376344042
  H           0.72457876235198     -4.28935122303618     -0.38502437017500
  H           6.84130350126928      1.79678096006030     -1.38935649836768
  H          -7.53268584087094     -0.28019987550067     -0.98897020827947
  H           1.20007658225308     -1.04684275075935     -1.53373443299559
  H          -1.15695777940377     -1.22632007834486     -1.65098890563159
  H           1.09282133991529     -0.06757833446192      1.33423271942835
  H          -1.57900485365311      1.31438820809761     -0.71501909312717
  H          -0.40416558072177      1.00291268735183     -2.00683238596949
  H          -1.59424101606609     -2.18929743492307      0.59461229982075
  H          -1.30197553887497     -0.62507851363630      1.34222660156340
  H           0.61699619144816     -2.45814202571150      1.09395016848309
  H           2.11907379899980     -2.52317338738209      0.15906079157736
  H           3.39742125365534     -0.69769093170614      1.69529349489315
  H           2.31801405127394      1.71392046508318     -1.67499455519312
  H          -3.08615101348929      0.98406544252988      1.51121859708197
  H          -3.51555272988792     -2.36800761531590     -1.12411112954357
  H           4.71332525663485      2.14368063767078     -2.10545395628716
  H          -5.86341416056723     -1.73488693605439     -1.51378562710932
  H           7.44108485531567     -1.68888256873830      1.77795850742056
  H           6.25230487766396     -2.21108903653723      0.55757200509239
  H           7.44292489942413     -0.93978189844601      0.16176683663511
  H          -6.20208095924625      3.71241368727767      1.20643908485571
  H          -4.98266791517102      3.32136077712712     -0.03215883137902
  H          -6.65196396667179      2.70392334563596     -0.19142732325750
