23
Coordinates from ORCA-job 3362 E -649.816303302004
  O           0.34192822249638      2.26554597763973     -0.15019307994754
  O           0.09193986867860     -2.40840570850011      0.31770210427477
  O           2.19914458556173     -0.49940452680213      1.32281291865963
  O          -3.91756754698307      0.17889402556339     -0.27552773492317
  C           0.22169565914741     -0.07182471978572      0.09428407676760
  C           1.71683789638257     -0.14600170430227      0.27320747566663
  C           2.55601556381548      0.19689743518101     -0.93815510321532
  C          -0.43484131890536      1.14398516127781     -0.10439342260284
  C          -0.56048244702712     -1.22544937420517      0.16037969491003
  C          -1.81704821024404      1.22399434504116     -0.22230062941316
  C          -1.94663128297595     -1.17356603373540      0.03284889461404
  C          -2.56616869084250      0.05737982477073     -0.15202106464488
  C           4.05090390191371      0.23897559186820     -0.65998881140018
  H          -0.21830632854129      3.04147436965150     -0.26144681551681
  H          -0.54532979734395     -3.12925108043510      0.36298984429748
  H          -4.33158541819344     -0.68740367496023     -0.19286511607388
  H           2.31365889650639     -0.55807788345892     -1.69680798824230
  H           2.19134401784618      1.14356492467929     -1.34398264859381
  H          -2.31854818500746      2.17370379775742     -0.35731970285486
  H          -2.53316965404102     -2.08532522060979      0.07290882278208
  H           4.40277665654519     -0.71483976881707     -0.26742546587012
  H           4.60453499962350      0.46486956952112     -1.57281778509449
  H           4.28559361158803      1.00267667266055      0.08248253642109
