22
Coordinates from ORCA-job 33937 E -388.203557657655
  C          -1.16432667366496      0.76775170778315      0.02212859829876
  C          -1.52757725178226     -0.58652945404591      0.05992972902079
  C           0.18516145453410      1.10350281237302     -0.00088722197914
  C           1.20175782396330      0.14456966346095      0.01218836072934
  C          -0.51667629303445     -1.54794666442010      0.07279125706037
  C           0.82243092163096     -1.19948771364527      0.04955819511810
  C          -2.21281606854219      1.84586571940605      0.00661667986966
  C          -2.97219564253699     -1.00002343066007      0.08590617852630
  C           2.59850886033464      0.58867308404593     -0.01355667981305
  C           3.69164681271931     -0.17366700754301     -0.00150104231074
  H           0.46133566731281      2.15203013659224     -0.03007610472298
  H          -0.79139993721756     -2.59599516760707      0.10172615592092
  H           1.57340863923810     -1.97817716206201      0.06032656944901
  H          -2.85077614476076      1.79701683675679      0.89329683079240
  H          -1.75674999139630      2.83492116136878     -0.02455491500581
  H          -2.87189498941031      1.75140701420784     -0.86069528350660
  H          -3.49138793198156     -0.59114918798614      0.95723611052900
  H          -3.50890004693322     -0.63998694231728     -0.79635892364196
  H          -3.06796913528125     -2.08499486053038      0.11698620360132
  H           2.72808709415190      1.66697408403840     -0.04569681914609
  H           4.67794406356705      0.26981819509802     -0.02345911411547
  H           3.64888276908964     -1.25515782431393      0.03045823532587
