27
Coordinates from ORCA-job 34167 E -557.105675673563
  O           1.94967494491709      0.35427600203429     -0.09291948094299
  O           1.77957352347721     -1.88854403531115     -0.14669013447475
  N          -2.13932709571679      0.91456324251966      0.29777005976152
  C          -2.92129577325885     -0.01062217071730     -0.50672267928802
  C          -0.72296172985653      0.86103310766834     -0.03144087605115
  C          -2.52152081895006     -1.44646366374562     -0.18744281726145
  C          -0.21206720237683     -0.55243065750877     -0.09655136410786
  C          -1.03747183975154     -1.59878769167827     -0.14772958695673
  C          -2.64174442379233      2.27201547099442      0.23225630437106
  C           1.25117552318581     -0.80215089689568     -0.11298659177197
  C           3.38613828357178      0.23171446366007     -0.11861774586509
  C           3.96443345672977      1.62751497418951     -0.09134068551906
  H          -3.97836430921639      0.14564225258459     -0.28524103409657
  H          -2.78492822282528      0.18001602440302     -1.58784851551036
  H          -0.51014402873332      1.36632722128563     -0.99348846294999
  H          -0.16930859277127      1.41695189410899      0.72740739991145
  H          -2.93987062161127     -1.74487212849203      0.78062584251318
  H          -2.94507989933704     -2.13147101568186     -0.92835504945048
  H          -0.60984529930935     -2.59430114089277     -0.16901163950221
  H          -2.05645621554141      2.91374990198518      0.89328684908000
  H          -2.59295510090054      2.69866885959450     -0.78562674343928
  H          -3.68096098201581      2.29859526236838      0.56346217054165
  H           3.70214630556444     -0.36032767778359      0.74173759658080
  H           3.67444654489274     -0.31434139168426     -1.01832213063852
  H           3.66290949733708      2.15742604047231      0.81338572921115
  H           5.05459068388627      1.57515091766958     -0.11111068652995
  H           3.63275139240245      2.20437883485281     -0.95586772761439
