17
Coordinates from ORCA-job 3469 E -571.220945250758
  O           1.32586588413050     -2.01984656206809     -0.22172155766336
  O          -2.96104740268084      1.44099960639516      0.21126781596954
  O           2.06551189467922      1.84368885271001     -0.61896400164918
  O           2.70062033525930      0.30133488965423      0.84581854212251
  C           0.45429478844808      0.17335161326914      0.03520954969819
  C           0.24442541708820     -1.20535517598721     -0.09868560835524
  C          -0.64186550747271      1.03008319755110      0.12489258384877
  C          -1.93995073939472      0.53819478496207      0.09896870843594
  C          -1.05919493474792     -1.68879766223071     -0.13925085571883
  C          -2.14466963504539     -0.82964074054313     -0.03626833143923
  C           1.83904159672711      0.73529306340187      0.13985098440544
  H           1.03522300951510     -2.93431353504995     -0.30873233298173
  H          -3.80704804460707      0.98000004931518      0.20571036351050
  H           1.31001727613097      2.00558772343700     -1.19911893018466
  H          -0.49564605384592      2.09427894805343      0.25885828977412
  H          -1.22985919609602     -2.75317101566630     -0.25484571532913
  H          -3.15114968808789     -1.23150903720377     -0.06277750444366
