68
Coordinates from ORCA-job 3476 E -1928.231805002394
  S          -2.21113317471298     -2.98834260067318     -1.45861650908019
  O          -1.45134677652674     -0.05075777000322     -1.59157820500297
  O          -3.06922888846622     -4.03642593463519     -0.97274150590875
  O          -1.92936526130174     -2.83293892413928     -2.85102348528956
  O           1.33352821478209      1.35737796757604      0.88791385168465
  O           4.96209677082177     -0.74182720331684      0.79284110184740
  N          -3.32922961776792      0.63362901329317     -0.49968558753513
  N          -2.99140496153394     -1.60995487384857     -0.90888553976676
  N           3.50781253220739      0.90498873889634      0.19560176608566
  N           2.93993589582753     -0.62993457404729      1.84496185158132
  C          -3.84625747486577      3.15515002216102      2.11848080947698
  C          -3.00946811132743      2.06245090829097     -0.53776548850225
  C          -4.87364449337318      2.77597911344481      1.04604109631943
  C          -2.57110472647537      2.32303907328632      1.94688350509612
  C          -4.29657230988914      2.87254039878514     -0.36920886660634
  C          -1.98740982450567      2.43795498733714      0.54067415018587
  C          -4.42748328836764      3.01969008047204      3.52243791725633
  C          -2.50620122448418     -0.29985396700627     -1.04331042524770
  C           4.42838592726533      1.45100123054638     -0.78391982702325
  C           3.64024433302800      2.56091868630559     -1.41153685781178
  C           2.41914554775472      2.63658897101801     -0.86165630347792
  C          -0.68837931494076     -3.03997959054714     -0.56740759802700
  C           2.29753253947759      1.58915026645613      0.17366205759683
  C           1.27710870859649      3.54126268675487     -1.18405227321346
  C           2.98049628604955     -3.12298648439212      1.63693465218344
  C           1.70235882136194     -3.13595843533874      0.84876816318316
  C           3.87260009827451     -0.21744039231087      0.96149500467145
  C           3.09106794284213     -1.88593906521989      2.55139771595678
  C           4.22350898787208      3.39350366442532     -2.49742841693861
  C          -0.65434346267047     -3.66058295968899      0.67646036146096
  C           0.45258913032217     -2.47183359505673     -1.11863802705984
  C           0.54034640565635     -3.70042383513083      1.37713759602303
  C           1.64027374653260     -2.52938561031011     -0.40660510246353
  C           0.34504214146532      2.94306865075818     -2.24593414169543
  H          -4.23961910863815      0.35731342359411     -0.17582228944103
  H          -3.72721308929937     -1.81957797617028     -0.25151083290498
  H           2.04348942089228     -0.15664004715769      1.81030993987692
  H          -3.57868261756715      4.20816749697959      1.95808211223488
  H          -2.57924581856307      2.26285282044018     -1.51958530638930
  H          -5.22905130121403      1.75695866305057      1.24726221474806
  H          -5.75543157414212      3.41715284163700      1.12696082437661
  H          -1.82268725170597      2.62887979594630      2.68198007617909
  H          -2.79964306472120      1.27259392093886      2.16153639301126
  H          -4.05859606383117      3.91759334731515     -0.58467032842267
  H          -5.03429699620301      2.55956130850497     -1.11317052901378
  H          -1.09531512197737      1.82158498105167      0.44026346349237
  H          -1.67728006674510      3.47250209065387      0.35924769893176
  H          -4.70538767239805      1.98183788229002      3.72770403145572
  H          -3.70283262426493      3.32438092302072      4.28056824657291
  H          -5.32215464599526      3.63454528665242      3.64547073551384
  H           5.34412442943495      1.80750058106626     -0.30411236796625
  H           4.72526941572558      0.68871543104941     -1.50934736750661
  H           0.71354039320378      3.71996905232351     -0.26634371475595
  H           1.65611927935736      4.50830239717842     -1.52242439211934
  H           3.04944329652069     -4.01374364794732      2.26573756237898
  H           3.83851239784358     -3.12495374282999      0.96498141561838
  H           4.06081824154009     -1.90295624422407      3.05023943100049
  H           2.31542636005519     -1.91636300811284      3.31702074296369
  H           5.16888580814999      3.84278771118498     -2.18062427028723
  H           4.44408867990970      2.78111891278977     -3.37675322320777
  H           3.54753093470180      4.19053219466915     -2.80215001116603
  H          -1.54813255405172     -4.12190122763672      1.07233915037644
  H           0.39659566152421     -1.99128756701491     -2.08331766959223
  H           0.57503973570395     -4.18892247167180      2.34364353803197
  H           2.53818800758994     -2.10077776778502     -0.83308522737416
  H          -0.05282946629379      1.97880883817951     -1.92994645563582
  H          -0.49601742668086      3.61274822724174     -2.43735708476929
  H           0.87768328321085      2.79558792865016     -3.18767594616986
