33
Coordinates from ORCA-job 3515 E -582.294028981679
  C          -3.11760680114041     -0.09046281237888      0.02271114816848
  C           0.64257531625173      0.68059559942452     -0.01416171045108
  C          -1.62865498898027     -0.41517195794361      0.01098196939786
  C           1.59386071999036     -0.46989003253885     -0.01684174900453
  C          -0.73433103542199      0.66281218357327     -0.00203259835858
  C           1.42026688619034      1.86539296940817     -0.02696397702778
  C           1.27890901089467     -1.83354499261387     -0.00706319253567
  C          -1.25851701822968     -1.75264157366039      0.01460676747588
  C           2.87310500054473      0.08208746839231     -0.03092352387419
  C          -3.52837392687195      0.67009708288255      1.28976419354031
  C          -3.55045336697868      0.66539893979520     -1.23971364394446
  C           2.75809507409040      1.48521501450499     -0.03691154847890
  C          -0.00577860815897     -2.36963076851121      0.00692038592012
  C           0.89835458354291      3.26694427094816     -0.02985453122221
  C           2.42869408423613     -2.81022254272491     -0.01193567014765
  H          -3.65033037675884     -1.04525960485420      0.02906662048311
  H          -1.19392843533733      1.64599510436082     -0.00278885253932
  H          -2.08927532168504     -2.45210486062469      0.02533580344394
  H           3.80051645648330     -0.46685804951800     -0.03627640944177
  H          -3.24878596154528      0.11647620380831      2.18758370292678
  H          -3.04748389607088      1.64961368140849      1.33842785555425
  H          -4.60863515060383      0.83079756306323      1.30781824794163
  H          -4.63110200987376      0.82443771445024     -1.24007369920162
  H          -3.07223879536916      1.64556672045084     -1.29975246803861
  H          -3.28522494327848      0.10927739279921     -2.14033426634075
  H           3.59203907769507      2.17430087205683     -0.04768356170298
  H          -0.04770637947894     -3.45322901021936      0.01279558794150
  H           0.28684152048545      3.47976999465719      0.85207067987038
  H           1.72259021800483      3.98088086585179     -0.03591639885421
  H           0.27936876910795      3.47343355639210     -0.90811525214500
  H           3.06789424131890     -2.66153328709429      0.86130620966951
  H           2.07498818788246     -3.83972724910612     -0.00570436478407
  H           3.05538386906427     -2.66781745643990     -0.89518775424036
