26
Coordinates from ORCA-job 356 E -315.626312639699
  C          -0.62498772053648     -0.43934607325986      0.00043776064062
  C           0.62435840402282      0.43814811121546     -0.00094302603801
  C          -1.92810510633824      0.35576487174519     -0.00158057539452
  C           1.92761512014559     -0.35673772639115      0.00119821067925
  C          -3.17848488050528     -0.52106466757355     -0.00071575036143
  C           3.17795781728485      0.52011755728288     -0.00083656286295
  C          -4.47547712869174      0.28401294916136     -0.00303299679826
  C           4.47495955932509     -0.28491887748714      0.00126988645552
  H          -0.60342456795496     -1.10023335977796     -0.87368011013402
  H          -0.60389226032744     -1.09680915475946      0.87714499178741
  H           0.60339193000795      1.09546782648460     -0.87776964141149
  H           0.60268216240699      1.09919845386340      0.87305512272656
  H          -1.95056900948557      1.01664033697090      0.87275173787228
  H          -1.94968181121125      1.01375636977567     -0.87808652652012
  H           1.94955910612311     -1.01392743873640      0.87832590127079
  H           1.94979080483650     -1.01836290552766     -0.87256362644988
  H          -3.15520069439178     -1.18082325870801     -0.87458402499874
  H          -3.15628207095891     -1.17772122757148      0.87550294392265
  H           3.15526509716615      1.17607746062282     -0.87757875529935
  H           3.15508008419462      1.18054937056264      0.87252987992003
  H          -4.53889686923816      0.92898434845940      0.87711639474885
  H          -4.53803685208569      0.92522637957043     -0.88599129024596
  H          -5.35183609618876     -0.36725086120169     -0.00214644941832
  H           4.53778251418639     -0.92604677908611      0.88426752074431
  H           4.53818631839851     -0.92997484113206     -0.87883875372734
  H           5.35128614981567      0.36638813549776     -0.00005426110787
