15
Coordinates from ORCA-job 359 E -457.884621564931
  O          -2.59394502119799      0.86420352430327     -0.00009170409320
  O           0.44923705844781     -2.70905837652729      0.00003122050695
  O           2.05972756171991      1.83123301264780      0.00006881225662
  C          -1.29174424570220      0.46066516632950     -0.00003635322889
  C           0.25487412860325     -1.35868985456465      0.00001825482798
  C           1.06082875734457      0.90103741638875      0.00004851863577
  C          -1.05735197955575     -0.90938455207025     -0.00003748089505
  C          -0.24416177716158      1.37714435495810      0.00001762326899
  C           1.32582109518682     -0.46508056973566      0.00004983505463
  H          -2.63181904126722      1.82718964329307     -0.00008172544471
  H           1.39341499426371     -2.90074768122312      0.00008762625889
  H           2.91490608157826      1.38737453323026      0.00009505716537
  H          -1.87944987147335     -1.60950220626031     -0.00006967644136
  H          -0.42226410324615      2.44480459751896      0.00001736111683
  H           2.34802436245992     -0.82856600828843      0.00007963101118
