47
Coordinates from ORCA-job 36689182 E -1019.139484201121
  O          -2.66136665324828     -1.00628992659815      1.34767063058923
  O           4.04995113711397      1.89015247259609     -0.77400319401834
  N          -0.13870077795909      1.44406548611359     -0.99136385330139
  C          -0.91394450053236      0.78638605939135      0.06532675918799
  C           1.24994643073711      1.76317864480868     -0.64199075622768
  C          -0.96527775347222      1.71062238597780      1.28213704976612
  C           1.24870256548175      2.68512818641728      0.58185654009489
  C           0.44055127511109      2.09742386486273      1.73924719123811
  C          -2.30312657118416      0.48539186565687     -0.48177277747675
  C           2.12736405968465      0.51648217018773     -0.43566898367563
  C          -3.14075487385611     -0.43132464459130      0.39040500393133
  C           3.61943720798972      0.78885579963646     -0.49466720465895
  C          -4.57850685867856     -0.63544520521289      0.02687967523291
  C           4.55925173262968     -0.34413543106601     -0.21932167256784
  C          -5.16594412899258     -0.04130905140334     -1.09226169103488
  C           4.11727763538600     -1.63337160994545      0.08571251223583
  C          -5.35594997844033     -1.46220949566373      0.84258223639714
  C           5.93298795678689     -0.09322479674870     -0.27375914998760
  C          -6.50274829908429     -0.27073724346505     -1.39037025006032
  C           5.03021226550792     -2.65087471535446      0.33019841092250
  C          -6.69025071121941     -1.68801481955945      0.54771240834015
  C           6.84384871276009     -1.10736455554992     -0.02799302053744
  C          -7.26677773187630     -1.09251482351913     -0.57088723736378
  C           6.39378080261842     -2.38960563550678      0.27452566749117
  H          -0.16218231206365      0.88800189784684     -1.83866146431457
  H          -0.46546708139263     -0.16565273487041      0.38387542569297
  H           1.66961805874085      2.31789441834971     -1.48215895641265
  H          -1.51651901804135      2.61426958754788      0.99998468370790
  H          -1.51166247083810      1.21958481635396      2.08758024405832
  H           2.27603199834566      2.89250107462976      0.88204403420237
  H           0.80180876422211      3.63630278591166      0.28158158616106
  H           0.38577896443160      2.81808735883278      2.55851602993378
  H           0.94406236971629      1.21450832039132      2.14660776672287
  H          -2.83521497700152      1.42296398350761     -0.66119079956021
  H          -2.22071685101087      0.00114507989895     -1.46347730245306
  H           1.89774072646854      0.01878873418007      0.50849278175590
  H           1.90281628630176     -0.22195837030419     -1.21486457988628
  H          -4.58525878139411      0.60146904537592     -1.73872390395230
  H           3.05984434486391     -1.85215796731372      0.13417851788904
  H          -4.88835904629198     -1.91717299066835      1.70490309564403
  H           6.26161500067945      0.90914545980141     -0.51154841230897
  H          -6.94798434245722      0.19329924973892     -2.26094532105096
  H           4.67705377935771     -3.64652843164173      0.56559802611363
  H          -7.28446898662074     -2.32797064088693      1.18733554167534
  H           7.90586258167449     -0.90233168706965     -0.07120653762111
  H          -8.30962065417643     -1.26881525037328     -0.80223819838617
  H           7.10513770322262     -3.18274072070277      0.46702544787227
