16
Coordinates from ORCA-job 3702506 E -495.861172755523
  O           3.55576008045809      0.14911512537694      0.02268829887346
  O          -2.69537859798349     -1.17452657051811     -0.11695272491451
  O          -2.75974342245783      1.09240337935265      0.05629810578184
  C          -0.66792954151177      0.01572283824135     -0.01336357084679
  C           2.02686808569877      0.08480494097656      0.00828259951706
  C          -0.00167573419979      1.23564367749660      0.08324476001102
  C           0.05881179697106     -1.17146130175506     -0.09896630975159
  C           1.38986714965492      1.29630982643447      0.09631225353397
  C           1.44981292482947     -1.15966889671073     -0.08952898139860
  C          -2.22610381554246     -0.02677917694248     -0.02615024825029
  H           3.92875961412770     -0.32351067257492      0.78803880845715
  H           3.93881594693657     -0.20171076808572     -0.80099729340654
  H          -0.61134991234454      2.12794265410618      0.14726631890514
  H          -0.50608891180837     -2.09208439406378     -0.17232822872819
  H           1.93701370360549      2.22629999668489      0.17004711833811
  H           2.03417519509316     -2.07043357568083     -0.15487638948025
