46
Coordinates from ORCA-job 372741 E -926.872992974783
  O          -0.52588357932119      1.58168025835776      0.18665067714851
  O           1.91780971248922      2.66104428449994      0.55023320786960
  C          -0.83098652140158     -1.35828897217899      0.14300676262417
  C           0.35701495927769     -0.62640584851564     -0.04705135053634
  C           1.55173191744810     -1.27745904280236     -0.43326625055566
  C          -2.12216528383115     -0.71190742816110      0.56790122272464
  C           3.00320587316409      0.73887031521871     -0.29061136008555
  C           4.33278656087543      1.45030185045847     -0.35779713282001
  C          -0.81775822274382     -2.75240960865237     -0.08665047279803
  C           2.80998484003109     -0.56112985900762     -0.57744677916541
  C           0.43240424486485      0.84440459405613      0.11935776592594
  C           1.84138254537477      1.51403636013770      0.16706120153679
  C          -2.96872179331485     -0.23580589827789     -0.63684346108144
  C           1.53049574416183     -2.64567365581399     -0.67221307762071
  C           0.35826226901051     -3.36594399278886     -0.50110996169666
  C           4.93220743065260      1.59329903302621      1.05157981694070
  C           5.33075741470965      0.79341045167707     -1.30974774435410
  C          -2.04977979660260     -3.59517351452664      0.11142355988052
  C          -4.32274834399677      0.24464093667894     -0.21049547060659
  C          -4.72657827612836      1.50876704011429     -0.06595885010170
  C          -6.12596459310548      1.82476244855540      0.38510331729624
  C          -3.86430756590320      2.71144307188031     -0.32578417448940
  H          -2.70882813401567     -1.42508788525083      1.14750934787233
  H          -1.93482642032208      0.14845073218684      1.20403528459228
  H           4.12135746483503      2.46073605375804     -0.71939431551186
  H           3.64706836321934     -1.16258378801032     -0.91305731875319
  H          -2.41415377734618      0.54027584039923     -1.15979577145325
  H          -3.08565305386882     -1.06765857737543     -1.33850755869410
  H           2.43723528319647     -3.14785308526759     -0.98575171054656
  H           0.35824491325801     -4.43326292419296     -0.68684820183742
  H           4.24182501668836      2.10415773360281      1.72117510788959
  H           5.16137307398177      0.60996306653647      1.46986202513790
  H           5.85846229507249      2.17023336258705      1.01204240335141
  H           6.22602827298749      1.41148676066018     -1.39344904652108
  H           5.64954193935896     -0.18748424315040     -0.94826803114844
  H           4.91133508998238      0.66776495100120     -2.30979695361436
  H          -2.35326986676243     -3.61966513469882      1.16111338935398
  H          -2.90027680097593     -3.21623218644091     -0.45733222252168
  H          -1.86398864591515     -4.62104195750718     -0.20451035049136
  H          -5.03629561683394     -0.54067231956734      0.03065075292589
  H          -6.11414204117274      2.40315535515752      1.31456302257537
  H          -6.64424848422213      2.44045319057209     -0.35737048455024
  H          -6.71365650068657      0.92134444462713      0.55046725743429
  H          -3.85259002470075      3.36156610614657      0.55437200484230
  H          -2.83347920364859      2.46155745579964     -0.56096222462230
  H          -4.27785867782011      3.30806322449155     -1.14578585174501
