19
Coordinates from ORCA-job 3806 E -610.275119927628
  O           2.57333357111784      1.36786067436876     -0.00001106983309
  O           0.30317538311215      2.76321033508765      0.00035142295398
  O          -2.53324541600665     -1.76922349539764     -0.00031071345965
  C           0.40365961666536      0.37550180796429     -0.00003267597057
  C          -0.36259345908202     -0.80843693873792     -0.00007392786094
  C           1.80653618120901      0.25680405813077     -0.00001201270929
  C          -0.27900474402731      1.69387904707649      0.00005146202034
  C           0.23732837621959     -2.05928244781177     -0.00006130284896
  C          -1.85550294620201     -0.75664294178541     -0.00009866295603
  C           2.39653596703494     -1.01004206292168     -0.00000010214818
  C           1.62155886859162     -2.15547135639436     -0.00001892446703
  C          -1.76281668035571      1.68935550699828      0.00013092787284
  C          -2.49028189863316      0.57134714830573      0.00005150967321
  H           3.50375385355308      1.11161215619539      0.00000044692822
  H          -0.39286199236890     -2.93672522971223     -0.00006791092184
  H           3.47878969462612     -1.08382366957539      0.00002495051584
  H           2.10076608452497     -3.12584459733491      0.00000692023482
  H          -2.21382675793637      2.67416882526424      0.00027024085973
  H          -3.57330370204255      0.57865818027971      0.00010142211659
