40
Coordinates from ORCA-job 38356372 E -1200.176818445041
  O           1.88093582886081     -1.38956096249152      0.50199191629530
  O           0.21486423066245      0.11258907864469      0.75215438247309
  O           4.75619376614193      1.55065338176903      0.14045084067638
  O           5.39300494798456     -1.15259834039840     -0.45390202691925
  O           1.99182942990682      2.19698083656138     -0.19594345421403
  O           2.39809415273610     -4.09076159557231      0.09158800586156
  O          -1.85739673492251     -0.71815965047660      0.47278649046433
  O          -0.73984838525093      2.65752160633650      0.51375989539871
  N          -2.83296297171912      1.83433858026752      0.25388564728413
  C           3.75225219711069      0.61913709738947     -0.23761914193050
  C           4.20441248229995     -0.75944047549136      0.21219822962457
  C           2.40227589842792      0.96648367857713      0.36211192002135
  C           3.11787764780891     -1.78270591397974     -0.10941633363739
  C           1.40650943272859     -0.14819291691832      0.05184432288439
  C           3.42363385277473     -3.17000090344874      0.41984440511193
  C          -0.95021766526386      0.29274663859683      0.04982900637513
  C          -1.48711222524034      1.71574235025694      0.31862161018722
  C          -3.17233760756238     -0.53523266733526      0.14310962012085
  C          -3.69819523891481      0.75228832653343      0.03328173881868
  C          -3.99355997670135     -1.63925348872543     -0.01842778556623
  C          -5.04494972708613      0.92922670755147     -0.25620577647103
  C          -5.34354046143260     -1.45897665079179     -0.29464006180778
  C          -5.86830546115802     -0.17744127153335     -0.41684393966017
  H           4.42189720011096      2.43276942549470     -0.06489202590701
  H           6.01178900526297     -0.41430802618820     -0.39025998981874
  H           1.12986795457959      2.45105595561155      0.18388468852508
  H           1.56944941765370     -3.71693821914663      0.41612763480753
  H          -3.21148173560666      2.76594786953902      0.35039185301429
  H           3.65159840383568      0.60806403492578     -1.33225263264578
  H           4.36179436931633     -0.73866479472372      1.29887069150526
  H           2.49254609571758      1.03115264252370      1.45339388389762
  H           2.98480299692993     -1.83616608011694     -1.19836160009857
  H           1.20629394758424     -0.17933248637706     -1.03005823435996
  H           3.57019789843868     -3.11004921383703      1.50609314209072
  H           4.34426255443017     -3.53284422482831     -0.03356051982351
  H          -0.78526593003638      0.19866742806438     -1.03444436814457
  H          -3.56162492653056     -2.62572728322419      0.08130481318447
  H          -5.44499769714989      1.93211514641557     -0.34418462527313
  H          -5.98267881090744     -2.32237932960363     -0.42032304301486
  H          -6.91742015582028     -0.03591328985053     -0.63755917933008
