16
Coordinates from ORCA-job 3840 E -533.068838805015
  O          -0.85286279217879      1.05408278187752      0.33131836273571
  O          -3.39843138017935      0.14148591575240     -0.56457166876928
  O           2.74955200107362      0.98292301338025     -0.16781576904924
  O           2.10074032548599     -1.66795647913312     -0.29501851199939
  C          -1.14558270902520     -0.26447412744882      0.24447269564332
  C          -0.19703212466530     -1.19302975660794      0.03139130946885
  C          -2.61235647585191     -0.51159960071995      0.42083875079280
  C           1.21116574007580     -0.85333718421682     -0.11320724543529
  C           1.46034513241175      0.59984904672990     -0.02484959287940
  C           0.43994487947707      1.45311532351130      0.18400800907644
  H          -3.27067529201946      1.09286955454880     -0.47580401455140
  H           2.82737933465549      1.94266541391035     -0.10400459003274
  H          -0.47174663522759     -2.23577799154275     -0.04226860571225
  H          -2.90987253632817     -0.20039214294590      1.43059177323430
  H          -2.80782137716768     -1.57742370229901      0.32218244865349
  H           0.53885790946373      2.52714293520379      0.25981564882407
