21
Coordinates from ORCA-job 3845 E -665.662500173895
  O           0.50813162934310      2.83194485528346     -0.18809464142292
  O          -3.23782080304769     -1.69850961840214     -0.43566685050847
  O          -3.83018682873047      0.11541812019877      0.70972291764418
  N          -0.58278167821289     -1.07471195215008      0.11320434395899
  C           0.76986101643880     -0.77777157859287      0.07311639211088
  C           1.17849719620629      0.55876011108065     -0.04942493901364
  C          -1.53150838491747     -0.08168554011484      0.12052472164752
  C           0.18494266860395      1.65566129550690     -0.08269743755233
  C           1.71738575328041     -1.80624039760936      0.14428025597984
  C          -1.20210012982554      1.22537950047025      0.02289392986461
  C           2.54734131016365      0.84104308771012     -0.11548082864925
  C           3.06029265183485     -1.49930358116625      0.08262014594353
  C           3.48175931766470     -0.17083545896146     -0.05217946116249
  C          -2.96724312588042     -0.51063808622613      0.17288197139423
  H          -2.50907425160298     -1.95920695843938     -1.01626597056715
  H          -0.84565959019034     -1.99527276795982      0.42876314210486
  H           1.39039493842731     -2.83473961402008      0.24292156390000
  H          -1.98208619039448      1.97179148304809      0.00656854666905
  H           2.83720301922260      1.87872597846772     -0.21100411441447
  H           3.79149486087023     -2.29535390822793      0.13688430493204
  H           4.53795862074640      0.05725903010441     -0.10214899285901
