55
Coordinates from ORCA-job 389001 E -1529.550300051279
  O          -0.34486062833468     -0.60687662594825      0.36134461424858
  O           0.58149203179588      2.04610633836932     -1.88862718793561
  O          -4.59332473085479      1.22236424427366     -1.02907570326003
  O          -5.82817561489664     -0.56383164462611      0.57837238128874
  O          -4.32150873274545     -2.47147393233884      1.96057615782987
  O          -2.13730410297883      2.34650828865240     -1.76636586514413
  O           3.93543120310894     -1.69951578070487      2.23555970932170
  O           5.02297227124386      0.45392701116345     -1.96079966252914
  O           5.88792331222419     -0.93544767147245      0.31432014866177
  C          -2.39909098784156      0.44764732023827     -0.33837318444057
  C          -1.70082725914881     -0.52532212378946      0.38412605423535
  C           0.40938077732145      0.25193548912018     -0.37347049210873
  C           1.84336354771877     -0.02242108880822     -0.22076327896557
  C          -0.18264012769146      1.22813811513651     -1.11304366748264
  C          -3.81285102580874      0.40512309326784     -0.27468915851817
  C          -1.63684394844560      1.42220506071968     -1.13542112872461
  C          -2.33551543407018     -1.47781002071252      1.17136491458655
  C          -4.46136631429596     -0.54649663395271      0.50562938068690
  C          -3.71453684774459     -1.48994216129833      1.23636363938652
  C           2.78549597573343      0.36985251559086     -1.17705233279495
  C           2.28239751575077     -0.71018260480017      0.91172309083467
  C           3.62836226036635     -0.98689025697126      1.11491608874033
  C           4.12370661170777      0.07633735617203     -0.99121398121006
  C           4.57391841439179     -0.58865463842612      0.15883414728829
  C           0.64920474053805      3.41527766456249     -1.46926266328304
  C          -4.86243046334541      2.51174700793824     -0.47134149431259
  C          -6.46925908186579     -1.20512839485875     -0.53055088111209
  C          -5.10506432692197     -2.04198953807126      3.08104989271128
  C           5.05725339922547     -1.30793830709664      3.02560342230689
  C           5.47169027581198     -0.61789639452722     -2.79552044478595
  C           6.81978907784679      0.14656332859911      0.43066016395744
  H          -1.75736432984805     -2.21068942277612      1.71511089686578
  H           2.48862633473137      0.88281378665847     -2.07618139538648
  H           1.58504583819414     -1.03543002362987      1.66822070132167
  H           1.08121703097754      3.47901276376274     -0.46608507846853
  H           1.30617480213059      3.91325564945921     -2.17909782230803
  H          -0.33843131827287      3.87249350981231     -1.48922050378620
  H          -5.36108340429830      2.40702351944189      0.49593629007946
  H          -3.94013058387388      3.08427729599914     -0.37529532460512
  H          -5.52484171810691      3.01138363751398     -1.17454264609120
  H          -7.53878175445336     -1.15436015286989     -0.33617015451914
  H          -6.23667846098280     -0.68363986191715     -1.46010158190638
  H          -6.15720305537646     -2.25065462541067     -0.59749377159253
  H          -4.47013166835143     -1.52216789050410      3.80425847395390
  H          -5.92040361556787     -1.39214481667439      2.76652230949488
  H          -5.50151041625155     -2.94865307814343      3.53269628002730
  H           4.88271249595231     -1.72474794918063      4.01614669331135
  H           5.98863653613069     -1.69765909792662      2.61835543207159
  H           5.11674809691502     -0.21862902277266      3.10133848961929
  H           5.97190923408740     -1.39122053976962     -2.20868611461086
  H           4.62849377476286     -1.05654023607882     -3.33626862504329
  H           6.17189996052057     -0.18182330904679     -3.50526819400398
  H           7.80200289565833     -0.31118236698348      0.52815367801948
  H           6.79072034526256      0.78879677386726     -0.44842433285093
  H           6.60299819226501      0.73852844176838      1.32437462093097
