33
Coordinates from ORCA-job 3902 E -928.017514549013
  N           0.05384312779110      2.17554318893784      0.05440764109492
  N           0.20992551961664      2.18859787135551      1.39737845553537
  N           0.09239158267231      4.29486757836372      0.59449611341243
  N          -5.83119291850150     -2.63708460773742      0.35070146509428
  N           5.71177943435846     -2.78946498395996      0.08667843985838
  C          -0.02660921285582      0.93173699704811     -0.70203293325907
  C          -1.30457130347732      0.15626390614663     -0.41433833296665
  C           1.23213575139656      0.10506575056609     -0.51957505669149
  C          -1.43943199164567     -1.13107181762852     -0.93511801413473
  C           2.16198005382006      0.02496847387790     -1.55064374583468
  C          -2.35977350740768      0.71028576996576      0.30356669128273
  C           1.47301715972771     -0.57216106643619      0.67505980387628
  C          -0.01456086729998      3.44194071452251     -0.40185882459212
  C          -2.60291521550804     -1.85429910716766     -0.74547968914400
  C           3.32248818675817     -0.71929703604097     -1.40294552078612
  C          -3.52911951715656     -0.00687582103274      0.50379653003282
  C           2.62881234913140     -1.31381408598179      0.83699891704091
  C          -3.65855402649114     -1.29413752308269     -0.01989092947007
  C           3.56047989534689     -1.39303742353993     -0.20418093956365
  C           0.22888456493622      3.47949629707587      1.67172337212955
  C          -4.86144654676389     -2.03692044499152      0.18566634039990
  C           4.75186334842068     -2.16526289994830     -0.04225716661987
  H          -0.06409280906370      1.24959720400607     -1.74681862925164
  H          -0.62289098537645     -1.57673318682130     -1.48771930383129
  H           1.98091523482220      0.54780320438991     -2.48181112449140
  H          -2.27137316000444      1.70081148048500      0.72413221317125
  H           0.75706081786333     -0.50523776795764      1.48126627838886
  H          -0.13960877614761      3.68349482778392     -1.44534448482329
  H          -2.70111486485700     -2.85173447164897     -1.15084027629424
  H           4.04252979280566     -0.78269499576338     -2.20680517014581
  H          -4.34359469745678      0.42555571848201      1.06818581288653
  H           2.81960449520732     -1.83583428964510      1.76432391478045
  H           0.34523708533891      3.84254454637721      2.67994115291545
