32
Coordinates from ORCA-job 40091 E -672.603557026930
  O           3.55166228970427     -0.09811919186815     -0.20031813607842
  O           2.63905932730509      2.29806129453817      0.49842758658738
  N          -2.91100580912665     -0.22580343153106     -0.17500932558096
  C          -2.02903587121846      0.91124692217456      0.12196765946138
  C          -0.55253839564462      0.56034837927182      0.03347384964460
  C          -2.37958643884527     -1.51513037562471      0.23701891238302
  C          -1.10322306028130     -1.81579142969156     -0.52598303912124
  C          -0.10751213895634     -0.71136099755015     -0.30740662495771
  C          -2.35482574930573      2.07012624569944     -0.82976721600244
  C           0.38876556680007      1.55790309521799      0.31001700416367
  C          -4.25020294473562     -0.02270624517306      0.34674069694120
  C           1.26575248414526     -0.96586741574811     -0.39803669097961
  C           2.18785496838595      0.03165468013347     -0.14576898880713
  C           1.74198977178519      1.30945510804652      0.22281297306931
  C           4.08606536252169     -1.36059359048321     -0.55790241229855
  H           3.52528601428363      1.92842333974325      0.38511807725419
  H          -2.21537776438673      1.25424162810912      1.15728650206545
  H          -2.18169370509266     -1.55353289447874      1.32454728455092
  H          -3.13630326957297     -2.27235755558092      0.02226543002071
  H          -0.68421723279131     -2.76961593695824     -0.19512137220812
  H          -1.34374642648593     -1.91730288979397     -1.58923612602969
  H          -1.75816123638502      2.95070809532849     -0.59478941675633
  H          -2.14144694348054      1.76824633012271     -1.85567219975579
  H          -3.40391884764709      2.35747801094233     -0.76511776334083
  H           0.07747758853416      2.55143462399879      0.60498214300449
  H          -4.27101244839213      0.03131188859234      1.45008800403832
  H          -4.68322116797547      0.89765920890782     -0.04121654951051
  H          -4.89155391565494     -0.84834212468038      0.03542006589477
  H           1.59509669415186     -1.96246886711002     -0.65858160535040
  H           5.16755319950476     -1.24704759964265     -0.54999284265618
  H           3.79476109100903     -2.13034636489213      0.16261144761075
  H           3.75727300784783     -1.65834094001980     -1.55770632725623
