18
Coordinates from ORCA-job 40468028 E -439.145450057735
  O           2.48796893252247     -1.00560067309234     -0.00351226605470
  O           2.23921397978915      1.25174857221424      0.12970693110759
  N          -1.82621090524107      1.06935982165383      0.48254778816592
  C          -2.50395205089768      0.02649392196632     -0.37065180774903
  C          -0.36820140138752      1.26775410301556      0.07860924773177
  C          -1.84569592151618     -1.32183873725614     -0.12550109369631
  C           0.31612491710406     -0.05569261428368      0.01358612034275
  C          -0.34816719734874     -1.20498104300179     -0.05126681748076
  C           1.86324322978769      0.05769891913335      0.05085837955107
  H          -2.33061525471000      1.95412777144543      0.43800095492123
  H          -1.83655589525935      0.75857968281996      1.45527934648187
  H          -3.56613457447113      0.03186149878807     -0.12852338097125
  H          -2.36832021217132      0.35573589797966     -1.39998867576998
  H          -0.37514246926167      1.79993990177958     -0.87343552809598
  H           0.11390007780360      1.90564871894243      0.81634052041540
  H          -2.24976294041830     -1.77921419639660      0.78653785855529
  H          -2.13972504056909     -1.98783146291657     -0.94152362656720
  H           0.24392572624507     -2.11359408279130     -0.05025895088769
