46
Coordinates from ORCA-job 40463 E -1958.105220529432
  Cl         -0.32319793608133      2.61394454325757     -0.76318509152161
  Cl          0.49941679215531      1.11146680470996      1.59288685246488
  O           2.61730779209852     -2.06847088878911      0.22760619142100
  O           2.40818130108742     -0.62206341415264     -1.49029112491916
  O          -2.52731185322930     -0.46377509951226     -1.05412855698409
  C           4.65576270534396      1.03126044928683     -0.12367309006539
  C           3.37612069178623      1.45289486586289      0.52695731384839
  C           3.73069786090343     -0.04336125785017      0.42746705452290
  C           5.92625210709932      1.24795900433306      0.67141837652210
  C           4.84202154518844      1.19660971874774     -1.61491071617816
  C           2.24620097640979      2.01508023590028     -0.24067239013391
  C           2.87035781590754     -0.90479573655216     -0.40967076809191
  C           0.98019274670179      1.93929914544906      0.14850759227184
  C           1.60384089784184     -2.92117015438680     -0.36782774579637
  C           0.23314433439430     -2.51885145840769      0.09841568538366
  C          -0.54728174457783     -1.65819948274836     -0.66523785705321
  C          -0.24683082961054     -2.97780710173075      1.32461565675783
  C          -1.80223386546550     -1.26877417027681     -0.21099762013341
  C          -1.50083587026478     -2.58509442823532      1.76870121973174
  C          -2.29072172270863     -1.73538399701186      1.00448899951918
  C          -3.53905383196573      0.33658744705238     -0.56736673569359
  C          -3.35403456492316      1.17456387951414      0.52697559940993
  C          -4.73766664695190      0.33741795637045     -1.26748344219494
  C          -4.38899737579254      2.01107204829731      0.92182817545644
  C          -5.76367913023601      1.18504202656237     -0.86758267780269
  C          -5.59568093001381      2.02112190313892      0.22962558165849
  H           3.45325966626142      1.82683558829929      1.54210625812701
  H           4.03402902898120     -0.50784685280541      1.35462104725573
  H           5.75587307156184      1.13349159564652      1.74310365510841
  H           6.69565631244512      0.53249572060698      0.37202718980933
  H           6.31632486485952      2.25385326358955      0.49735782547783
  H           5.61667685564695      0.51417144414241     -1.97154758476807
  H           3.93474819725729      0.98821030493825     -2.17414939204259
  H           5.17168408787113      2.21563589482804     -1.83405580353890
  H           2.44186556844074      2.51373342374270     -1.18032289240873
  H           1.69028761614765     -2.87177074547566     -1.45090858085717
  H           1.85848693155191     -3.92034246703873     -0.02091457642717
  H          -0.18285650225516     -1.26992455880573     -1.60593677439689
  H           0.36083109096069     -3.64247814322672      1.92572659786316
  H          -1.87892723152029     -2.95093357492395      2.71483395379920
  H          -3.27182636469602     -1.44064145785738      1.34724980544130
  H          -2.41005782307670      1.17507789512460      1.05165243019154
  H          -4.84805663647499     -0.32095531184740     -2.11862690635038
  H          -4.24503277284837      2.66742339853612      1.77064339051349
  H          -6.69761990061139      1.18707938367458     -1.41489929996065
  H          -6.39633032559938      2.67890836002290      0.54123517476363
