28
Coordinates from ORCA-job 404821 E -541.070284003757
  O           1.12005180168352     -0.62170287666395      0.25123437980885
  O           2.62516409255585     -2.24695408187609      0.28837782633351
  C          -0.63057691758835      0.99570286407679      0.21982418405808
  C           0.77558695257853      0.68965385315570     -0.25918594158036
  C          -1.68782651791594      0.03227501530692     -0.31305539944542
  C          -3.09124811082535      0.35206361256163      0.19444610221911
  C           1.80776737204892      1.72324534066264      0.16339708717705
  C          -4.15848803517201     -0.60198415916984     -0.33730675936371
  C           3.18612577989527      1.22390721188575     -0.13618186737701
  C          -5.55845190735229     -0.28106629898413      0.17912659451800
  C           2.38782792394919     -1.08188919842401      0.10030892466804
  C           3.42985432417255     -0.08272717460006     -0.21780558717419
  H          -0.63165040496953      0.98438370712444      1.31432243724962
  H          -0.87393803210913      2.01873426635578     -0.08620917668994
  H           0.78440260501228      0.61685007342530     -1.35367146588728
  H          -1.68230512769703      0.06139862659508     -1.40867918756618
  H          -1.41763309762345     -0.98759589196124     -0.03009976165077
  H          -3.09491489125714      0.32178761262806      1.29007719859952
  H          -3.35611742773049      1.37978012670253     -0.08151397861172
  H           1.61349967009970      2.65982883969961     -0.36453043297753
  H           1.71304824059434      1.94297753281480      1.23409354107096
  H          -4.15516986635620     -0.57081278600029     -1.43200700690129
  H          -3.89132180032385     -1.62734398935226     -0.06203738225331
  H           3.98647226388678      1.94306861787323     -0.27043837684055
  H          -5.59728892126173     -0.33808612567073      1.26988848849248
  H          -5.86238529562212      0.72855137293430     -0.10917541045592
  H          -6.30016344421328     -0.97744726217092     -0.21672908940281
  H           4.41135577154099     -0.48684882892904     -0.42167394001724
