39
Coordinates from ORCA-job 4058 E -789.334142773955
  O          -1.89570251762842     -1.39162292202765      0.44839577186894
  O          -1.35099743286866     -1.71594330580809     -1.70547940238484
  N           3.12084287733912     -0.89626910058109      0.23816045909965
  C           0.22482280859206     -0.57013130613265     -0.24868605059907
  C           1.26049122280709     -0.82111016577593     -1.36169845458941
  C           0.80896984453202     -1.15510762153931      1.05350785402311
  C           2.63084870214866     -0.27833953240733     -0.98770335828197
  C           2.21494522825193     -0.64347337904866      1.34969252996035
  C          -0.16513995711012      0.91349062495514     -0.15290201311415
  C          -1.07251312016081     -1.29959573361232     -0.60915680381310
  C           4.47339763799175     -0.47896584410514      0.54885526753030
  C          -0.52414402841356      1.60130049752392     -1.31467154092564
  C          -0.24064576962045      1.59846381670852      1.05813936464672
  C          -0.91986580650100      2.93082571534589     -1.27132241893173
  C          -0.63178009897071      2.93140129645293      1.10631139536081
  C          -0.96911377906869      3.60671927436555     -0.05839106638181
  C          -3.18987033472804     -1.98342897657853      0.20703809419796
  C          -3.95514010299462     -1.94898257542376      1.50905975991256
  H           1.33748699309216     -1.89764520364291     -1.52142852301359
  H           0.93091846455661     -0.38968893439786     -2.30390175421001
  H           0.15080116799510     -0.96325974998189      1.89868529059677
  H           0.85896366176227     -2.24027259449808      0.93645652297406
  H           2.58877359339726      0.82220338264003     -0.89172361915378
  H           3.33866953579739     -0.50143713660321     -1.78891890145614
  H           2.60202465267067     -1.15909723095558      2.23200915652630
  H           2.18732247401467      0.43245735481463      1.59452215979254
  H           4.82784264732716     -1.00342224639157      1.43815866853200
  H           5.13695187718308     -0.72776896226670     -0.28107322188519
  H           4.55409950746014      0.60679923117291      0.73763672926784
  H          -0.51357310978139      1.08840506248234     -2.26657777658942
  H           0.00374585675057      1.09845432468974      1.98295050397087
  H          -1.19310921088054      3.43757517904893     -2.18826662540475
  H          -0.67345683204968      3.44047036029850      2.06106083816637
  H          -1.27289914225883      4.64497999456818     -0.02144589242499
  H          -3.69010436688090     -1.41477586820080     -0.57841472746887
  H          -3.04685511395270     -3.00120098112043     -0.15925790531545
  H          -3.43679029048778     -2.51875003683227      2.28169007282155
  H          -4.07874549263821     -0.92355546682299      1.85995545363939
  H          -4.94526324667458     -2.38587724031245      1.36643016305580
