32
Coordinates from ORCA-job 4076 E -709.694565199728
  O           1.12797945631238     -2.54005632598638      0.31840411789181
  O           1.37380308851473      2.21328351900329     -0.09838756753282
  O           2.65454680040128     -0.16313666737614     -0.05425237688257
  N          -5.18103435163645      0.01700386623569     -0.63683628435570
  C          -1.48998951573997     -0.03934008553660      0.47799574756414
  C          -2.98525288785224      0.00265135060410      0.64165556841637
  C          -0.77501353631989      1.14144860396291      0.26454591151150
  C          -0.81279452688250     -1.24627043959277      0.46783044105602
  C          -3.72430620384303     -0.02186623422924     -0.71004302055089
  C           0.56443156641187     -1.30090998160364      0.24558365304880
  C           0.59775567221724      1.10425601557827      0.05863968084862
  C           1.28710545832954     -0.12312809981598      0.03908121364508
  C           2.15487774212009     -2.90574634476032     -0.59994356329980
  C           0.75132721638829      3.48356758419637     -0.02716390738804
  C           3.22086395041564      0.25249289091543     -1.29749314996964
  H          -5.53612371739799     -0.77766016149647     -0.11663319514219
  H          -5.49542031478489      0.85089355312730     -0.15301927400980
  H          -3.31815654967780     -0.85027314071678      1.23966557638031
  H          -3.27790872608816      0.90696137443955      1.18438001302129
  H          -1.29909993307148      2.08578647458251      0.28188063217140
  H          -1.33325917491909     -2.18115770490303      0.63025552521026
  H          -3.43293862644386     -0.92212666721916     -1.25681360328262
  H          -3.38942710035075      0.82489881292640     -1.31485379695506
  H           2.16687471542406     -3.99468761532215     -0.61142177290883
  H           1.92540211821143     -2.54027644986363     -1.60467906001997
  H           3.12651662428122     -2.52712435151068     -0.28775966695121
  H           0.27210295686319      3.63723932059406      0.94393329499680
  H           1.54676010382514      4.21381691981591     -0.15706536200642
  H           0.00850590182229      3.61050775146878     -0.82031239440697
  H           3.02529078499979      1.30699190659179     -1.48859337924511
  H           4.29345818454289      0.08670048337711     -1.21263478723094
  H           2.82475582392703     -0.34805015748652     -2.12232021362383
