19
Coordinates from ORCA-job 41013 E -498.181738071254
  O          -2.39386231603089      0.95467580864713     -0.03718890093819
  O          -2.84157197774337     -1.25551731423927      0.05334790798159
  C          -0.06677719398012      0.86474320946149     -0.03151996450069
  C          -0.56048559071352     -0.42517463554130      0.02111984709263
  C          -1.23520179773308      1.80328596658342     -0.07123126968339
  C           1.29812317807616      1.10339542103403     -0.04014997775102
  C           2.17249127516694      0.01779402451705      0.00525697211240
  C           0.28822662873028     -1.52324276762477      0.06707517969553
  C          -2.03404256830195     -0.37224155497922      0.01768663394085
  C           1.65214360121497     -1.28611895406308      0.05849383155483
  C           3.66152548458623      0.22806096166424     -0.00256635801036
  H          -1.27081882096194      2.40170215785153     -0.98464209132581
  H          -1.27260595077731      2.47522974308572      0.78942926408089
  H           1.69098027811364      2.11250470464305     -0.08124093169661
  H          -0.11450834954801     -2.52665264749179      0.10809544135471
  H           2.34094634295079     -2.12161943566928      0.09354842683506
  H           4.12106969315848     -0.19803021053424      0.89231000492902
  H           4.12059762516563     -0.26133507899906     -0.86476739878662
  H           3.91462545862705      1.28717960165434     -0.04094061688483
