65
Coordinates from ORCA-job 42738 E -1573.607915616823
  O          -0.55025048866608      0.49109704415858      1.88182882282401
  O           0.79061783983301     -1.32188191109345     -0.90827379595248
  O          -2.34248000380996      0.59348927673879     -2.45603061293359
  O           1.63853550621489      3.20598448475184     -0.00384912955158
  O          -4.69650414437126     -1.56862139381289      1.00348988375855
  O           5.11837867916537      0.05131350232798      0.33985441984639
  O          -4.46282703178066     -0.39552631602207     -3.00125479118095
  O           3.79267918785653      3.99937496676289      0.70404292826354
  C          -2.61482311865649     -0.60401597169339      1.55839650961627
  C           2.96810387158050     -0.77093099338506     -0.18526098841503
  C          -0.24636474610732      1.39841697040227     -0.86804176151085
  C          -1.38914879266918      0.55276486105519     -0.33014866260557
  C           1.15442277996702      0.97287670871778     -0.45910427005175
  C          -1.48575338991118      0.18499074152416      0.97387598577118
  C           1.58590860081509     -0.31324366032500     -0.53036016522056
  C          -3.74478722112818     -0.94014341773555      0.56244595997898
  C           3.95221194244913      0.36801201185230      0.15465725393931
  C          -3.62272748507530     -0.51306528518282     -0.81664293439339
  C           3.45203007916830      1.72441875957639      0.26071827310814
  C          -2.47706585419182      0.20482621508364     -1.21563206562713
  C           2.10489016455666      1.98621739372955     -0.06247947986054
  C          -3.24205560607822      0.19681151967759      2.72016936452113
  C          -2.05512928471262     -1.94623701353178      2.08317961009781
  C           3.55142033411262     -1.57484821873010     -1.36510597124248
  C           2.88005340491187     -1.66784951887638      1.07322713371423
  C          -4.63528351754388     -0.78912295435990     -1.82375456230875
  C           4.28175217054393      2.84556438853642      0.67208817015951
  C          -5.89772665276340     -1.53756727890581     -1.50250681768462
  C           5.72440645714553      2.67045473281689      1.06239175538532
  C          -6.83424412023487     -1.71796276737209     -2.69053435066185
  C           6.37287607091288      3.91824465403177      1.65553664517420
  C          -8.09612790339958     -2.48334546735364     -2.30045243747039
  C           5.89256875488081      4.23647432071902      3.07051245545061
  H           0.22387325201649      0.88772566839108      1.44876867727842
  H          -0.12809676321489     -1.01498287579131     -0.98886518050574
  H          -3.21588017114013      0.25362037881077     -2.93922313514390
  H           2.45954859135421      3.79180405771101      0.30048795700273
  H          -0.31567681008159      1.40585486721198     -1.95555832636647
  H          -0.38868877461483      2.43346601560602     -0.55828146360122
  H          -4.07655328688030     -0.37401138699857      3.12167839492123
  H          -2.50656263289686      0.37096401327950      3.50333430487724
  H          -3.61599693400501      1.16147429664239      2.37231434325977
  H          -2.87867755602634     -2.52937585921947      2.49018077359759
  H          -1.58858641440284     -2.51852043830394      1.27882433093602
  H          -1.31275946932430     -1.76910461446915      2.85943081947690
  H           4.56777857814355     -1.86902150465378     -1.11404572572205
  H           2.94969744682167     -2.46083934621886     -1.55767452797227
  H           3.58010403434381     -0.96942308436307     -2.27278804452601
  H           2.46577147524097     -1.11810813277689      1.92063162474005
  H           2.24805330898323     -2.53242461960886      0.87655772929185
  H           3.88348962917919     -2.00055844185484      1.33251228317779
  H          -5.61837475573315     -2.50001420976729     -1.06408366928284
  H          -6.39563303948669     -1.02269608388409     -0.67581485640812
  H           5.80245334370746      1.81788829214474      1.73988337093928
  H           6.25477092200755      2.33257933577702      0.16658122666220
  H          -7.10011656835041     -0.74024506310300     -3.09837542243443
  H          -6.31076250970093     -2.24256632839703     -3.49283418614659
  H           7.45377352832381      3.75594012362350      1.66861988842948
  H           6.19004021119856      4.77355993126431      1.00263965120269
  H          -7.85402456005799     -3.47835707211428     -1.91852571009784
  H          -8.65238285168951     -1.95871492961801     -1.51952752562456
  H          -8.76155822706713     -2.60811512826121     -3.15652279139095
  H           6.08772692691839      3.39916304287183      3.74600504938790
  H           6.40626891630086      5.11226667317570      3.47144953224807
  H           4.82196367711901      4.44279703881068      3.08570623285605
