26
Coordinates from ORCA-job 4276 E -651.927800998488
  O           2.59529601601871      0.17489298923954     -0.70532806802157
  O           2.01123339519005     -1.98210659120917     -0.17787594471785
  O           0.49557639618142      2.43572550413580     -0.70400791107673
  C          -1.36803066158216     -0.56659685524187      0.20154183925044
  C           1.25149770692918      0.12839863004943     -0.37343668703927
  C           0.90037103545804     -1.17872515382960     -0.07189368213638
  C           0.29387490781182      1.12955166864313     -0.39408940049582
  C          -0.38569363373933     -1.56779908082637      0.21381879272010
  C          -1.02180605731956      0.74461942569700     -0.09554330969007
  C          -2.80240581581747     -0.91261725518978      0.55096928150285
  C           3.11178181423505     -1.07987056642191     -0.26580003998179
  C          -3.80665527642967     -0.31648403122047     -0.38987893859819
  C           1.81696346443285      2.96482054754365     -0.62043117684660
  C          -4.77701475449241      0.51648959971581     -0.03668030721309
  H          -0.62486884190045     -2.59860504515444      0.43447694803974
  H          -1.77789562497783      1.51825015567207     -0.10406224837225
  H          -2.90472657241773     -2.00209922668672      0.54545967587039
  H          -3.02432908924707     -0.58447503836288      1.57138115895506
  H           3.83158250375876     -1.45007429017935     -0.99317193886814
  H           3.56449460475819     -0.96171265877890      0.72790845013497
  H          -3.69650939535724     -0.59662440831006     -1.43418117746932
  H           1.71263572878977      4.03813564507604     -0.76258202914703
  H           2.25465420722036      2.76573470447957      0.36081002487787
  H           2.46461078659448      2.55024895561288     -1.39302965212629
  H          -5.47480310444482      0.91658933366245     -0.76130874959356
  H          -4.90842273965291      0.82701504188414      0.99425809004256
