26
Coordinates from ORCA-job 439250 E -390.589368664392
  C          -0.72848326464605     -0.21558455162707      0.22944399823436
  C           0.04067291316206     -1.09359182930012     -0.75600494275939
  C          -0.07172982430701      1.17801521111065      0.27883303963554
  C           1.49037380096825     -1.27451380802686     -0.31005335609224
  C           2.14688811895943      0.01657483291035      0.10667372629376
  C           1.42708843443520      1.11075237218089      0.34926021832578
  C          -2.21629573593283     -0.11116924908114     -0.02348770560106
  C           3.64116249762550     -0.01097276438615      0.23423274399123
  C          -3.01849866339716      0.52438007224158      1.07988365860347
  C          -2.80264812697161     -0.53856417483861     -1.13939704618571
  H          -0.60470442125889     -0.65856500720265      1.22753890348664
  H          -0.44385840619641     -2.06684085436899     -0.85638001370539
  H           0.02533962700795     -0.62474790743779     -1.74471859700876
  H          -0.38161311417994      1.75026386467005     -0.60505040051087
  H          -0.44440029667567      1.73850775816214      1.14022527511238
  H           1.54311445908376     -1.98683744782647      0.52374737905273
  H           2.07363227756475     -1.72984958013146     -1.11748233274593
  H           1.93970378717632      2.02720410941767      0.62779981271531
  H           3.95745013992412     -0.77871265167630      0.94825687920298
  H           4.11193887665183     -0.26186572180823     -0.72180661451677
  H           4.03589910499339      0.94859980597947      0.56939965327356
  H          -2.72752121091596      1.56643480575745      1.23667076325572
  H          -4.08535710090792      0.50319668803333      0.85866375467939
  H          -2.85248396733103      0.00552665994951      2.02901247479606
  H          -3.87171858698740     -0.43716618749429     -1.28199191430041
  H          -2.25020231784468     -0.99948144520695     -1.94648135723237
