66
Coordinates from ORCA-job 439336 E -1908.604442318052
  O          -0.03528536015213      1.74423860202647     -0.76114040596385
  O          -3.57166663374203      0.90861040341172     -0.91654445932833
  O           1.36631029797452      2.17311676918113      0.97177062021759
  O          -1.54566316033051     -1.19931043319918     -0.88326153754353
  O          -0.07963472604034     -2.79939014433797     -1.77251469610902
  O          -1.23376754049415      3.28922185349095      1.50293154176956
  O          -3.55945127018485      1.97307785818414      1.80312483616536
  O           2.62715684585172      2.06149225392104     -1.59571833234871
  O           4.36159330462154     -0.07989386558643     -0.85214561297747
  O           4.66627515023452      0.74861617791821      1.80993246852643
  O          -5.47031893974999      1.86361472986840     -0.10920901344574
  O          -3.04702470364910     -3.21627452833793      0.28046732198047
  O          -1.03814007389680     -4.25502284565608      1.98438936222086
  O           0.90343198358559     -4.89244793139075      0.14241344634092
  O           1.56596458403011      3.01027847644061      3.64125794885737
  O           2.70582210199139     -2.03418477339541     -2.39446823207987
  C          -1.36019747077038      1.57088025433173     -0.23898539253575
  C          -2.24301259168775      1.05538570411686     -1.37527656771576
  C          -1.88598011197104      2.88865279930996      0.30795705535826
  C           0.99157098991099      1.21085509307773     -0.01111673468997
  C          -3.37147873808340      2.77252600628690      0.64693960079763
  C           2.16539267929593      0.90079104300146     -0.93213410151921
  C           3.27113522642087      0.34649008584563     -0.05414610068229
  C           3.67310606077097      1.37536906580889      0.99344273602494
  C          -1.76274669905371     -0.26960595155582     -1.93692398968672
  C          -4.16854436267785      2.12848634999197     -0.49160642604611
  C           2.43265575533600      1.75698227878133      1.82253771587774
  C          -1.38308732717876     -2.52710240093423     -1.30399953264176
  C          -1.72520092203902     -3.46353647589007     -0.14743760044381
  C          -0.71407705524426     -3.28717841869122      0.97183253878742
  C           0.70411736810992     -3.52314070648533      0.44614695236623
  C           0.95688289449210     -2.67142093744697     -0.79827058992891
  C           2.69103473733109      2.89536180582884      2.78269837275097
  C           2.27736133588494     -3.02572849831851     -1.47443261555595
  H          -0.28802740310082      3.06579816834469      1.45860828132294
  H          -2.86868153687558      2.23685333736413      2.42667320130797
  H           1.86514871032905      2.47646240532634     -2.01776089128142
  H           5.09223065112011     -0.27512961322389     -0.25038773084777
  H           5.27412377511735      1.41295237828937      2.14738714496534
  H          -5.42719402331624      1.42153066155418      0.75118515665107
  H          -3.20428664371429     -3.77633687597976      1.04999531025960
  H          -0.75974148952616     -3.92200873605429      2.84378323308227
  H           0.46674381513427     -5.39908928591099      0.84043729901886
  H           1.54078861991716      3.89369462048489      4.02110381674003
  H           3.40837923023821     -1.50320508467713     -1.99264805438799
  H          -1.34994873710199      0.82270266687401      0.55466732801790
  H          -2.20655801936069      1.78315208994403     -2.20286943097623
  H          -1.75858094116922      3.65262216223199     -0.47155193924521
  H           0.66032890158259      0.29441987209481      0.49756465229633
  H          -3.77537172707695      3.77865074333287      0.81529605413516
  H           1.85277081064859      0.13672479117924     -1.64940204456509
  H           2.86156264924695     -0.51881106971705      0.48735653546638
  H           4.07771162735945      2.25598254550661      0.48918682685539
  H          -0.84027392261298     -0.11421066681796     -2.50244452245673
  H          -2.53162691348166     -0.65139187020448     -2.61584592093214
  H          -4.21606377717738      2.82105944549323     -1.34286363765402
  H           2.12420652616166      0.87418737028091      2.40020871447359
  H          -2.04056727493158     -2.73333657275942     -2.15250659668075
  H          -1.62559651724949     -4.48206642671429     -0.53915429745886
  H          -0.80641392387222     -2.27510547253712      1.37453052079542
  H           1.42620521969618     -3.20233591489317      1.21459557818646
  H           0.99779690244985     -1.63071530514887     -0.46316782445486
  H           2.84885995977985      3.81084045123189      2.20203238026715
  H           3.59846438888033      2.68039797277697      3.35956593343531
  H           2.14054515170809     -3.96201565778517     -2.01561451538433
  H           3.03145228230144     -3.19701282948464     -0.69935113775078
