24
Coordinates from ORCA-job 439680 E -687.153867287097
  O          -0.72573199147094      1.05176737002444      0.22413033903495
  O          -0.73630174556120     -2.56750918768403     -0.19048044536152
  O           2.08308332507288     -1.95767762185323      0.02952906226436
  O           1.90118892682797      0.60419079453159      1.25410122509610
  O           0.78458626675151      2.71445876820679     -0.21592052283249
  O          -3.49247537088960      0.64622555484359      0.15102616571953
  C          -0.24674522753826     -1.31009898651686      0.23527360364867
  C           1.11300464209337     -1.01216620448649     -0.39750941549088
  C          -1.25114770198353     -0.22896176796757     -0.15080983066568
  C           1.55688707834479      0.42189274827673     -0.12389419502863
  C           0.45005753142039      1.40633677168061     -0.50810386237156
  C          -2.58896096448441     -0.36720917867910      0.54895017055062
  H          -0.01240740625738     -3.20108244229860     -0.10132433679678
  H           2.43646628428251     -1.64173326796674      0.87280669887492
  H           1.07893410469193      0.57948877296686      1.76406541092407
  H           1.27724550776096      2.71835025493262      0.61715948369190
  H          -3.04278543699177      1.49225388676992      0.27029065494896
  H          -0.13825422593512     -1.30280967040262      1.33108471261049
  H           1.01181869273710     -1.14873542789867     -1.47846645750024
  H          -1.41194442362002     -0.25281760998312     -1.23690537150375
  H           2.46567366657406      0.64288493580743     -0.68481084432086
  H           0.23334276890712      1.35423884246200     -1.58096263386408
  H          -2.42411123248448     -0.34932597173208      1.63519982740454
  H          -3.03646006824789     -1.32445136303346      0.28637856096736
