26
Coordinates from ORCA-job 440967 E -390.567400526226
  C          -1.08196206019821      0.33990193988068     -0.26175700689944
  C          -0.83425358418304     -1.17770702953677      0.02254778772324
  C           0.01276213483925      0.59045092169155      0.84354728168656
  C          -0.39931477470412     -0.77821180253237      1.45571467377504
  C           0.38490677145595     -1.68908828563145     -0.74764189017805
  C           1.37334453586861      0.47140838778959      0.22469948554990
  C           1.66287993525741     -0.89788425611473     -0.36568409546636
  C          -0.82998708732500      0.88311740600870     -1.66055754725335
  C          -2.46666408537129      0.79264916303705      0.19924623615870
  C           2.24614790400531      1.47344792487383      0.19266783492433
  H          -1.69105511727368     -1.84506801849418     -0.09247630584514
  H          -0.08757914669513      1.49284411364026      1.44821992162257
  H          -1.23434013559242     -0.68845867491429      2.14511440142992
  H           0.38310665955296     -1.37066561931016      1.92998411744143
  H           0.53700767251169     -2.74832278078978     -0.52744495730203
  H           0.19538622584578     -1.62117523430421     -1.82072645891393
  H           2.20918558646905     -1.46903949222963      0.39003055635378
  H           2.33820053933687     -0.80753065053840     -1.21763391233720
  H          -0.92049734148831      1.97237834008108     -1.66306698892766
  H           0.16003775338025      0.64372387513310     -2.04291789887932
  H          -1.57018626160567      0.48770748449419     -2.36177959765863
  H          -2.72070420790032      0.43757015866380      1.19741178759987
  H          -2.52710867044963      1.88391224193913      0.20846801578761
  H          -3.23249166818911      0.42393972308805     -0.48841744614424
  H           3.21000875317600      1.37385229401323     -0.29303101625146
  H           2.02576966927681      2.42738987006173      0.65645602200388
