26
Coordinates from ORCA-job 440966 E -390.589678878037
  C           0.45200763884205     -1.15897924728971      0.44151197888672
  C          -0.86858482846577     -0.47240888134469     -0.02946647335358
  C           1.00593017320279      1.02932737707993      0.40960419760695
  C           1.01490560207700     -0.12270804597691      1.43422678609524
  C           1.52459006940290     -1.09379980751516     -0.66315940957937
  C           1.87096278149182      0.42324802484828     -0.72761623919181
  C          -0.43082725636134      0.99969951698848     -0.04997981421435
  C          -1.37303606032047     -0.94866908580417     -1.39584495814262
  C          -1.98614369075768     -0.70370998819737      1.00040906732492
  C          -1.17183720374967      2.04139048061949     -0.40181239451107
  H           0.28574607045105     -2.16238076832452      0.83397066253614
  H           1.34513285348677      2.00508173484490      0.75324798454376
  H           0.37857935220048      0.06361468125490      2.29787438608311
  H           2.01834064393746     -0.37345499989032      1.78316297635681
  H           2.39563056266225     -1.67886520878041     -0.36351808063531
  H           1.18613880495036     -1.49338239216570     -1.61683070774343
  H           1.63440552850951      0.87138241703083     -1.69244639262964
  H           2.93020926127089      0.59788077028198     -0.53104029921444
  H          -1.51943514649300     -2.03212431201058     -1.39775183432585
  H          -2.33290169907660     -0.48301849698076     -1.62563875186477
  H          -0.68700409836546     -0.69255924090767     -2.20174198835069
  H          -1.68757488461946     -0.40949013894658      2.00588160798312
  H          -2.87170013961020     -0.12317096716212      0.73701193306636
  H          -2.26666578341799     -1.75997773423116      1.02283764533071
  H          -0.77837802954658      3.05050888214508     -0.37300717050556
  H          -2.19801252170112      1.92978243043397     -0.73192971155132
