33
Coordinates from ORCA-job 441644 E -581.598305529465
  O           2.46494445174185     -0.69161712352327     -0.12286365076284
  O           4.28792479551609     -1.91245726702603      0.33331661903350
  C           2.13676411776405      0.69022801352434     -0.42795748008305
  C           0.79152757776313      1.03255071805273      0.17479042448649
  C          -0.37138846403232      0.23460480670824     -0.40926315755327
  C           3.32403742968852      1.49787043924617      0.10799985522137
  C          -1.71395234732266      0.58922907073553      0.22440266680296
  C           4.47867386168571      0.50692017906021      0.00158982214829
  C          -2.88376798134808     -0.20043437298226     -0.35723409060622
  C          -4.22725858633795      0.14578054589693      0.27932591042718
  C           3.79532705464927     -0.84739748651751      0.10239183714716
  C          -5.39857928215921     -0.64308967575835     -0.30195446503861
  C          -6.73685024696198     -0.29020379015218      0.34184102715904
  H           2.08663229380130      0.76531849463287     -1.52021661149364
  H           0.84954822637374      0.87465689130770      1.25660682467381
  H           0.62186930006593      2.10426068690872      0.02123894165790
  H          -0.42210661153562      0.40932683243074     -1.49001687514059
  H          -0.17389051985025     -0.83242148906319     -0.27871279497217
  H           3.47569283911079      2.41801614607565     -0.45452282312020
  H           3.14347864159072      1.76439371044481      1.15186022543027
  H          -1.66071836443643      0.41278371498031      1.30465075547353
  H          -1.90411510021222      1.66184928942942      0.10103461592563
  H           4.97599298637572      0.55560460496990     -0.97106579478385
  H           5.24413099697583      0.59998998111925      0.76866604851743
  H          -2.93857521128719     -0.02265446015692     -1.43733400709384
  H          -2.69080558448436     -1.27215501453219     -0.23604229363526
  H          -4.17283120196757     -0.03298053796547      1.35943759454866
  H          -4.41989962972522      1.21833887756858      0.15952121398330
  H          -5.45226295076936     -0.46389356160396     -1.38105335924873
  H          -5.20498905977871     -1.71419882683028     -0.18169526706986
  H          -6.72089959091184     -0.49102316846499      1.41609853000862
  H          -6.96986427711036      0.76932746806186      0.20835864072003
  H          -7.55507956287130     -0.86810169657737     -0.09235288276302
