56
Coordinates from ORCA-job 441835 E -1194.268877188810
  O          -1.29769585124381      0.20666137496399     -2.04011364889213
  O           4.27050836023320     -2.89719021410023     -0.61052766175591
  O           5.37987718783093     -0.37768092807160     -0.46166552194069
  O           2.35355276112479      3.26498519070427      0.71117877692284
  O          -5.58590210620768     -0.04523981475864      0.79898170766812
  C          -2.36892932009613     -0.32410403599225      0.12322555624851
  C          -1.48757680884993      0.66996310663277     -0.68140954671870
  C           0.62184044473671     -0.49307925363915      0.16259801711012
  C           1.94264062174460     -0.30929947938247      0.97043739676404
  C          -0.11017628354655      0.81616123804753     -0.07979623308045
  C          -3.70497237265739     -0.21079355736669     -0.67468588172312
  C          -1.68358843173393     -1.68958639468637      0.13350946645300
  C          -0.28862622320348     -1.59227032950108      0.76118132341101
  C          -2.38395111327716      1.89083986864520     -0.83499175619510
  C           2.71050617533738      0.91737154157018      0.43007500939459
  C          -3.79818764229535      1.29303952198873     -1.03344384386187
  C           2.86010726583235     -1.53978796421168      0.83204165637831
  C          -2.56068697857290      0.18021752088492      1.56472880084390
  C           3.23944115832253      0.71099957023056     -1.00221796964527
  C           0.45790267289792      2.01328811325793      0.10158716516372
  C           1.66102208955610     -0.07829962028131      2.46370943897464
  C           3.40331011735814     -1.77540915564065     -0.57763359736980
  C           1.86746172203502      2.17672815212696      0.46755712571151
  C           4.11472483288942     -0.53100900491156     -1.11959494000608
  C          -4.90960853317608     -0.74631021918419      0.07992080141142
  C          -5.23461631746391     -2.20943168895307     -0.11662445164533
  H          -0.88521906272761     -0.66291979250629     -2.03315493061627
  H           5.14077634156345     -2.57442000312964     -0.33653722665413
  H           5.25646605105948      0.11321943597687      0.35822588510196
  H           0.90613344649667     -0.84663129266226     -0.83588978115461
  H          -3.58725256089662     -0.80126321260467     -1.58432830103120
  H          -2.27196909772942     -2.40994435914772      0.70563021227264
  H          -1.62705104513227     -2.09574090962432     -0.88184595822085
  H           0.21647086299532     -2.55380121902618      0.66493074180646
  H          -0.41010608288323     -1.41717669972045      1.82784160294217
  H          -2.34154061344910      2.50929218104409      0.05990618399830
  H          -2.06035963335670      2.49814881070748     -1.67820703831159
  H           3.55797085585148      1.11250487292617      1.09464517469028
  H          -4.13512369118347      1.40942521606164     -2.06211363474373
  H          -4.52860680833181      1.78067843455771     -0.39104444620069
  H           3.71234773380252     -1.40819697405401      1.50693283539532
  H           2.35442392234530     -2.44521458804684      1.16979528037612
  H          -3.00081656057532     -0.60312813952556      2.18373611195889
  H          -1.61632863258589      0.47601334780531      2.01934494592787
  H          -3.23359034168525      1.03292912090370      1.60817125856511
  H           2.40278740317848      0.62196677499483     -1.69954529972466
  H           3.81149508304364      1.58865043439465     -1.30815941858963
  H          -0.08897475269817      2.93031490765329     -0.07423517998143
  H           2.58104038616555      0.22150472345754      2.96836091033413
  H           0.92456082576316      0.70924404262788      2.62721844318891
  H           1.30503851960989     -0.98480175881961      2.95195048292241
  H           2.58274523324790     -2.01884061343271     -1.25811363278603
  H           4.37146835378306     -0.70652594166269     -2.16588341678973
  H          -5.98532553735123     -2.52885910034815      0.60285841906890
  H          -5.62308339474597     -2.35074415280698     -1.12975029499846
  H          -4.34079163114862     -2.83022908436518     -0.03472211836773
