78
Coordinates from ORCA-job 441828 E -1581.724848737932
  O          -0.28396585702512     -1.13057811003379     -0.77749906563401
  O          -2.89416559050521      3.14281951648245      0.26847945190273
  O           6.15815974908534     -2.73208171638741      0.66109690115633
  O          -5.45849470236935      2.40526811009996      0.34467410811418
  O           4.59131822361348      1.93248292306663     -1.65865834341656
  O           7.62494259122739     -0.97425382765614     -0.81718102374710
  O          -6.61402475397139     -4.13075646360091      0.27059160246934
  C          -0.53336699582979      1.04014293294146      0.42093612605547
  C           0.16092483933789      0.24289788346245     -0.74684218736311
  C          -2.01665502842041      0.90479755652023     -0.03446702615707
  C           2.09567406063649     -0.41602395791220      0.72381350917545
  C           3.63856258353355     -0.60929857422729      0.81918352679350
  C          -0.13153608043639      0.37348047649532      1.74491067793585
  C           1.65010834170675      0.28689850528070     -0.53638792374308
  C          -0.46939257883491      0.84317465521666     -1.99262769789624
  C          -1.94398109426713      1.06266071748270     -1.58157316856712
  C           1.39426897703056      0.27101289520815      1.92207688054168
  C           4.41009654566231      0.65203728973147      0.36161525911449
  C          -3.11400148367830      1.77294109053611      0.61485062137005
  C          -0.07404899311501      2.50768584503757      0.43267152376856
  C           3.99935758974918     -1.78504250412094     -0.12626913705257
  C           2.47992851303610      1.01117799456349     -1.29213176706970
  C           5.92086453566667      0.40018402060270      0.25895487521997
  C           4.01348162042822     -0.94205066427685      2.27178468728959
  C           3.88409977439979      1.23885439851133     -0.95063046295466
  C           5.48460888501772     -2.02300869513933     -0.39431413043107
  C          -4.49958482179762      1.38542590318725      0.01603053448356
  C           6.23225133367427     -0.72607171586086     -0.72759477776595
  C          -3.13320525003968      1.64627144857376      2.14128743985953
  C          -5.02322469505388      0.00350132147555      0.38686615581773
  C          -6.25076893096656     -0.39859005566169     -0.43227099982529
  C          -6.93851957346594     -1.69391113247759      0.01821999829852
  C          -6.03547579152959     -2.91169871256004     -0.18651041819040
  C          -8.27333642623793     -1.87904612678545     -0.70260649960061
  H          -0.14812161034230     -1.53958330686773      0.08214988032567
  H          -3.76260991437305      3.56885271231496      0.30347763006501
  H           5.86069520455353     -2.40018119792660      1.51274835997052
  H          -5.77281174498543      2.25567935107144      1.24416970978506
  H           7.82407503520657     -1.63863364614275     -0.14236782252537
  H          -6.74094376011408     -4.06989787991505      1.22377016479423
  H          -2.29024324781891     -0.12734385548941      0.18062552353729
  H           1.69281723633837     -1.43527414408883      0.68663811930090
  H          -0.53788145864653      0.92679674018845      2.59038962007114
  H          -0.57364183287400     -0.62746113442948      1.81447796721431
  H           0.00537217322761      1.78571325298578     -2.25403306311943
  H          -0.35925349284274      0.16556558876813     -2.83763019604192
  H          -2.59151781957816      0.33534160374649     -2.06949246489187
  H          -2.28329465393584      2.05505841011651     -1.87235905423374
  H           1.59105561841515     -0.29253158728351      2.83308939504764
  H           1.81594431069336      1.26714580280496      2.07151892247981
  H           4.23787408500295      1.44545184595901      1.10059401433911
  H          -0.50407797047203      3.02417368762835      1.28887468805743
  H           1.00886128788005      2.59302438811478      0.49041800595708
  H          -0.40692222420164      3.04627648953929     -0.44981904792058
  H           3.56302184648533     -2.71094088717752      0.25897103772794
  H           3.52413038077819     -1.60186549332796     -1.09278921178873
  H           2.13622231614835      1.52914756158308     -2.17768952948487
  H           6.41686693440967      1.30546693804694     -0.08523853830324
  H           6.34002016607908      0.15970292600485      1.23792013553738
  H           3.73621624162883     -0.13340504430655      2.94720572826358
  H           3.51510953995326     -1.85358658649144      2.60940198152285
  H           5.08655525475705     -1.07311678520442      2.40255869081836
  H           5.58074071563590     -2.69323848632798     -1.25053434764130
  H          -4.41156238118456      1.45970588277528     -1.06792762729570
  H           5.91283970534334     -0.40444499538785     -1.72192827229162
  H          -4.01432640716279      2.13918831287678      2.55874238777253
  H          -3.13418429364972      0.60607472903555      2.46944524446185
  H          -2.26536647306278      2.14570021042786      2.56426643898783
  H          -4.22512861136821     -0.72695890004067      0.25237562350537
  H          -5.27314269128470     -0.00985018642123      1.45484487944523
  H          -6.97967311179455      0.41396204539577     -0.39320429338045
  H          -5.96311712856532     -0.49473283604540     -1.48564165035674
  H          -7.13666752431756     -1.61035821890626      1.09700261932897
  H          -5.06263791524904     -2.75536850175030      0.29256355988576
  H          -5.85490640581840     -3.05766490887439     -1.25455080632013
  H          -8.95555178077383     -1.05619487556652     -0.48004228159711
  H          -8.12228075783309     -1.90447811918632     -1.78551398011311
  H          -8.75090535654880     -2.81407513000154     -0.41155639084892
