26
Coordinates from ORCA-job 442134 E -801.225368279603
  O          -1.81266218990333     -1.51833188095724      0.37967910446490
  O           0.19989746606349      2.69120658862556     -0.50629313250181
  O           2.77248416635757     -1.43127498220075     -0.39987599892284
  O           0.54965955167169     -2.78649605491782      0.14913245363978
  O          -3.99019608497165     -1.72428114353134      0.77130780683085
  C          -0.80890952803480      0.62123473333766     -0.06740331870993
  C          -0.71843392869043     -0.76890816597205      0.09868284570142
  C           0.35961613397985      1.34846904473796     -0.35795470271496
  C           0.49403801112405     -1.43931834493569     -0.01710697445563
  C           1.63236144762173     -0.68831093605863     -0.30566467700588
  C           1.57837632506008      0.69761582918534     -0.47727286108316
  C          -2.10100649328801      1.21819529661800      0.07112138252800
  C          -3.18353542845704      0.46559839702595      0.35050302416066
  C          -3.08770120826205     -0.97193571918996      0.52197863254753
  C           1.34003387820970      3.47872849509412     -0.80008776021193
  C           3.99697646947298     -0.77520622172107     -0.69143997014072
  H           1.46976901094713     -3.05746447242678      0.03030317838982
  H           2.47696765059844      1.24705953254183     -0.69939186127581
  H          -2.18876554047808      2.28870935130993     -0.05378119500318
  H          -4.17162726499108      0.88702729586814      0.46097920226509
  H           0.98559771928512      4.50378155826789     -0.87467049984312
  H           2.08636415695049      3.41025713659509     -0.00294995310930
  H           1.79385233064932      3.18190612459099     -1.75038575059592
  H           4.75563786618785     -1.55317735310434     -0.71738056580999
  H           3.95383665181681     -0.27604759566987     -1.66301071530150
  H           4.24777583108015     -0.04774751311293      0.08501130615763
