37
Coordinates from ORCA-job 442360 E -584.724051491420
  C           0.16314076250852     -2.10842603149840      0.03131764391716
  C          -1.28252069260182     -1.62305455345928     -0.15735090173907
  C           1.14734048747682     -0.95766442846837      0.01002161586243
  C          -1.74520559928113     -0.63489208482357      0.92093512677904
  C           0.52254689132433     -3.17567830269567     -1.00914556184018
  C           1.94916728661864     -0.67672731043637      1.11166311278189
  C           1.26971227516141     -0.12904261841549     -1.10666853592944
  C          -3.13487592018373     -0.12620316719239      0.67699605595097
  C           2.84113017563036      0.38988285646535      1.10298831803497
  C           2.15729361744790      0.93625335327246     -1.11570673278906
  C           2.96295759378331      1.21574414221544     -0.01079344796233
  C          -3.47616196135198      1.01641220912010      0.07728521264825
  C           3.94421085280392      2.35619969419056     -0.03637460304612
  C          -4.91845039348760      1.38896064767364     -0.12659288066400
  C          -2.48872522360118      2.01966580546755     -0.45072097453696
  H           0.22986605357579     -2.57078712286745      1.02196993206476
  H          -1.38112466561573     -1.14816536236462     -1.13799411635375
  H          -1.95081713271513     -2.48974777092394     -0.17103198795514
  H          -1.70618654543580     -1.13383257427772      1.89518187504200
  H          -1.03368533079355      0.18932214765117      0.97464866841965
  H           1.54097204179693     -3.53912048850267     -0.86240337006335
  H          -0.15927329542905     -4.02635247387452     -0.94163522572467
  H           0.45524947048870     -2.77313378225688     -2.02220903034814
  H           1.86896625449987     -1.29733456788917      1.99674809740469
  H           0.65667504713112     -0.31038181840974     -1.98106970817223
  H          -3.93965135074551     -0.78439851978553      0.99601521616371
  H           3.44754082931406      0.58484802024279      1.98005640218649
  H           2.22493316414341      1.56568302772248     -1.99591111603170
  H           4.21716058791464      2.66728429786069      0.97266462314712
  H           4.86516479082993      2.07054170069573     -0.55308347229131
  H           3.53420975512579      3.22182786480031     -0.55974604448446
  H          -5.59196145926510      0.63089322324840      0.27381973393907
  H          -5.14834939392632      2.34295027122913      0.35951680101683
  H          -5.14291893178630      1.52014734537819     -1.19035454651519
  H          -2.62948450913483      2.99138490096756      0.03378602554895
  H          -1.45281013294099      1.71776358061941     -0.31171151022788
  H          -2.65016839927970      2.18192188932080     -1.52139869423301
