39
Coordinates from ORCA-job 442393 E -585.907436865353
  C          -1.02470208939812     -1.00145467362401     -0.23155175570986
  C          -0.60729516213642      0.34294006296931      0.43975196137434
  C           0.05806086827215     -2.04825228053911      0.08195797899135
  C           0.79249480831243      0.78964210852144      0.02454671236061
  C          -2.35997768560216     -1.45534572083862      0.38585709688785
  C           1.84943711819047     -0.28404741968162      0.35076609488704
  C           1.46912479524204     -1.61058102711760     -0.30925010064459
  C          -1.69718093118235      1.37458652773200      0.27821485226910
  C          -3.46852318183963     -0.40859589320793      0.27766274645920
  C          -1.18249661583282     -0.84702861702221     -1.75100174928951
  C          -3.01893735662681      0.94054654665951      0.85639156932066
  C           3.24648834386804      0.20821456542332      0.03584611272088
  C          -1.54334574069218      2.54532887935682     -0.33388851668171
  C           3.77997988977227      1.27408897397835      0.95478758301028
  C           3.97923153461373     -0.25202648116350     -0.97569137765056
  H          -0.55955484502969      0.12147208417834      1.51648883868482
  H           0.03655089807403     -2.25545312438552      1.15780200239687
  H          -0.19331424317133     -2.98809047401358     -0.41906351287560
  H           0.83087307464095      1.00794423841810     -1.04552794018703
  H           1.03310328117702      1.72012354720931      0.54057172597223
  H          -2.67701633148440     -2.39063812742094     -0.08540715821235
  H          -2.18931427749375     -1.68263404494294      1.44430698465286
  H           1.81148233781704     -0.44007803389676      1.43858538220288
  H           2.18792499441519     -2.38269622784096     -0.02490450802356
  H           1.53602275180007     -1.51378444560379     -1.39520899823877
  H          -3.75699764187383     -0.27333883529916     -0.76759182461701
  H          -4.36113132946470     -0.75743411328237      0.80298361846595
  H          -1.53043691099016     -1.78699159583311     -2.18595488501307
  H          -1.89988082128844     -0.06869797917265     -2.00638155878084
  H          -0.24344197479543     -0.58727997098276     -2.23721259280622
  H          -2.90710372579691      0.83171993825317      1.94264976008802
  H          -3.77905703582855      1.70533643637374      0.68723547871740
  H          -2.37074254597740      3.23893274150324     -0.42548105433743
  H          -0.60019021367139      2.85761734105060     -0.76145290234414
  H           3.15792368973460      2.17250753905415      0.93351999881790
  H           3.78660373586121      0.92161202268923      1.99091179743244
  H           4.79571883170761      1.56146842289580      0.68420582302621
  H           4.97176920383644      0.13734779564591     -1.16739234966891
  H           3.62788750284119     -1.02519368604320     -1.64466433365772
