27
Coordinates from ORCA-job 442495 E -465.837286472374
  O           0.51960978629230      2.10002273643217     -0.66115553219829
  C          -2.27557308125512     -0.11325276743820     -0.22296592426696
  C          -1.52347929845497     -1.39753053568727      0.11430294023387
  C          -1.44344392091851      1.09363246707039      0.22155454287011
  C          -0.14382137033887     -1.43557595741677     -0.54720970586308
  C           0.71125352248063     -0.23342811007430     -0.19781909435147
  C          -0.00398276151918      1.07719640078662     -0.26280986828244
  C          -3.67090171364035     -0.08015629835580      0.39338089323211
  C           2.01016559636578     -0.29763306711967      0.15400030132875
  C           2.79268291352551     -1.58135501695376      0.20728000367751
  C           2.83955494484911      0.89338827270454      0.55062425958011
  H          -2.38177949492208     -0.06483951744740     -1.31410624692318
  H          -1.41154940745003     -1.47336811045448      1.20202028336130
  H          -2.10456616350988     -2.26680525930560     -0.20557767652779
  H          -1.89192738646195      2.03676341863878     -0.09231205046676
  H          -1.40106994141196      1.10047657434806      1.31930043705942
  H           0.35698752758396     -2.36256172851243     -0.27835651737180
  H          -0.28606924886056     -1.46587445891530     -1.63504963079235
  H          -3.61282134158977     -0.13916909417550      1.48382849064481
  H          -4.19584949994924      0.84241207077305      0.13691973192046
  H          -4.27552121192138     -0.92001193477030      0.04408503739299
  H           3.05319059990314     -1.82462278207414      1.24246805895925
  H           2.28292435544711     -2.43594391484746     -0.22748879174414
  H           3.73984119620131     -1.44991683607057     -0.32407561690283
  H           3.50105105915162      0.62043980878941      1.37755349681807
  H           3.48008999386594      1.19664841415787     -0.28310025252977
  H           2.24966334653744      1.76051622591807      0.82845543114213
