35
Coordinates from ORCA-job 442668 E -1106.228292232498
  O          -0.25325269509091      2.30432210421281     -0.13631511576239
  O          -4.60465795815675     -0.94125330913504      0.01834864237014
  O          -4.91837885808752      1.34187159963820     -0.05274609933071
  O          -2.06337453693814     -2.22960690553707     -0.04807747694921
  O           0.68896976647841     -1.64691381262873     -0.31239419375256
  O           2.61260698022276     -0.81160539197211      1.89610339471835
  C          -1.01619870318237      0.00622377780540     -0.08512824914796
  C          -1.26608537371677      1.38827006094053     -0.10098860683750
  C          -2.14067487217731     -0.87838590181499     -0.04602269433899
  C          -3.38984944315515     -0.30774096410826     -0.05726992101812
  C          -3.58534698033837      1.06898232925051     -0.08951316338658
  C           0.37661138248507     -0.47138850950368     -0.19143975845290
  C          -2.54504048698088      1.95636730517198     -0.10210300430409
  C           1.39545500144166      0.59107527349408     -0.17048254683423
  C           2.82606162356747      0.22834746542554     -0.21463274646632
  C          -5.57555675954556      0.07427430142491     -0.21448967802987
  C           1.02293545915231      1.87908586758893     -0.14816852832459
  C           3.40177455072694     -0.50971067242861      0.82688063217879
  C           3.63188983760693      0.59632167129304     -1.28873569118958
  C           4.74219320900225     -0.87557821016276      0.77206099879464
  C           4.97451701224912      0.24264878721560     -1.34593538554317
  C          -1.57809232515394     -2.84580449506982      1.15045342425579
  C           5.52516456334319     -0.50232427451352     -0.31244630077934
  H           3.08840317022666     -1.40098368247328      2.49130825041936
  H          -2.67608560317343      3.02746488996546     -0.11487747685250
  H          -5.95460990880793     -0.00120965450134     -1.23972714844724
  H          -6.37753381066554     -0.00992122199113      0.51713518709002
  H           1.71528908287152      2.70897248282959     -0.13558656998139
  H           3.18297489156246      1.15101834737093     -2.10309002487290
  H           5.17388591431108     -1.44675521515149      1.58686373643923
  H           5.57806221345489      0.53464084019778     -2.19464855533773
  H          -0.53858718769113     -2.57843608587636      1.33077222984747
  H          -2.20792467537636     -2.56160839439027      1.99832600273986
  H          -1.65401791244831     -3.91752357827343      0.98220497224804
  H           6.56668409337063     -0.79532152218340     -0.34411829365681
