37
Coordinates from ORCA-job 442657 E -675.986651769726
  O          -0.46509199380880     -0.26698609518360     -2.11854392337537
  N           2.67476012177163      0.83771723568872      0.71543944627276
  C           1.81543129781699      0.11760820717152     -0.23969246329086
  C           2.17787758382808     -1.36992590750295     -0.25405618788422
  C           3.65972472049520     -1.60731166348295     -0.52548133632681
  C           0.33638633415511      0.32577417824007      0.11134060142966
  C           4.09405827274300      0.66063578638340      0.41402794344943
  C           4.50793773494146     -0.80173088779902      0.45005272551487
  C          -0.65836699068429     -0.48682178536846     -0.72427462818064
  C           2.36645020507492      2.25498561461427      0.81631082952566
  C          -2.08255061894181     -0.21219809975614     -0.27309043679761
  C          -2.49926300507311     -0.64117362109396      0.98787050691576
  C          -2.98873450445664      0.47023795443386     -1.07744713486463
  C          -3.78514563230752     -0.38187950836129      1.43954429649311
  C          -4.27857409207517      0.73457899522854     -0.62692690652351
  C          -4.68063714295253      0.31327147478042      0.63294877011469
  H          -0.36118527128757      0.67946926789216     -2.27033018850014
  H           1.99084330606649      0.51539544646567     -1.25744873880316
  H           1.90758822804056     -1.80078824163397      0.71614257999268
  H           1.58211760698220     -1.87203502621114     -1.01638264563222
  H           3.89065740001186     -2.67318865770726     -0.45881484049894
  H           3.89295794878988     -1.29750474659048     -1.55023577119055
  H           0.19493097781703      0.08809019184059      1.16837785850548
  H           0.06165059778054      1.37748961971494     -0.00654596105605
  H           4.34091182544286      1.08463123777445     -0.57910060581579
  H           4.66411477625677      1.23027719279852      1.15076959893693
  H           4.37086364628207     -1.18423763811588      1.46582770321925
  H           5.57062278452740     -0.88552036973479      0.20868093169120
  H          -0.46866324263553     -1.55302036813552     -0.58911270242744
  H           3.09235256990362      2.72936026484822      1.47728281414264
  H           2.41031682852041      2.77288366296412     -0.15935091719291
  H           1.37938699748774      2.41718501520761      1.24448932176510
  H          -1.81174107978419     -1.18956025142872      1.62165373401264
  H          -2.69472723672626      0.77489894336708     -2.07242339689250
  H          -4.09118188190496     -0.72572802693088      2.41959479612069
  H          -4.97144907617351      1.26536860746450     -1.26783693398816
  H          -5.68488499592396      0.51602699815836      0.98230626113896
