71
Coordinates from ORCA-job 442972 E -1258.531775249584
  O           2.83733377115942      0.04238000552414      0.83729511045749
  O          -8.18868230158403      0.87520766416852     -0.06628772602713
  N           5.89062861739143      0.04468681585799     -1.13785438374289
  C          -2.56090914170533     -0.13349350039138     -0.44778784679409
  C          -1.93786438716937     -1.02871455837617      0.62492049385698
  C          -0.59121819699378     -1.40928606734370      0.00894641468541
  C          -3.84073565688272      0.57692047516078      0.02760822337596
  C           2.26451447562276     -0.63908748423815     -0.33367241293416
  C          -0.15170771961285     -0.12427351560819     -0.65799645086365
  C          -1.38374907133147      0.71207557249657     -0.96712517210974
  C           0.49055517590284     -1.94289901940352      0.92801225053584
  C           3.43862029089314     -0.71952994472813     -1.39471712465087
  C           1.78637415657827     -2.01830503526238      0.13083341621192
  C           1.12092605131261      0.25140679772566     -0.79902539117288
  C          -2.88845409641571     -2.15500100704614      0.98975410127443
  C           4.49684468318118      0.19056018548290     -0.75613208359356
  C          -4.73144985502385     -0.44891518362103      0.73099840163519
  C           4.24479371392497     -0.01992975647541      0.72739059633086
  C          -4.58769329501515      1.12634786396232     -1.21110602202132
  C          -4.29696726164651     -1.64743638734034      1.12536182573888
  C          -3.53116519523412      1.72963648119644      1.00229666329263
  C          -6.16441371564557     -0.03699626590058      0.96109004648757
  C          -6.01249833218192      1.60019460639694     -0.92986570154145
  C           4.99413313149356      1.00783296831654      1.54343548451530
  C          -6.83955057823372      0.48238247738662     -0.30914712423351
  C           3.98264727927182     -2.11065439475971     -1.71475313110002
  C           1.48915346331768      1.61402471504050     -1.31812191316724
  C           6.48945977660541      0.91348600497357      1.18398685828879
  C           6.70528460183014      0.97247814473668     -0.34374753121555
  C           7.30587464909710      1.99273608977724      1.88868344021175
  H          -8.18216437430500      1.60384935521202      0.56581759247627
  H           6.20236891224647     -0.90628255271161     -0.97289783813103
  H          -2.86930537571340     -0.80451154983535     -1.25923108456964
  H          -1.74119439599592     -0.42599940200536      1.51922685688745
  H          -0.79103427049951     -2.16424416155098     -0.76792412751786
  H          -1.47784977793290      0.94293498653176     -2.03032311135794
  H          -1.32152779327139      1.66833805131226     -0.44378081613736
  H           0.61789756109941     -1.26983478961809      1.78024327879594
  H           0.22607730179127     -2.92864735800612      1.31939275442579
  H           3.09167883544192     -0.29011862721406     -2.33369523229160
  H           1.61795380930470     -2.66079545848944     -0.73699807183405
  H           2.58341645027215     -2.47714724758519      0.71781497987100
  H          -2.85213898690524     -2.93596420827646      0.21786565956777
  H          -2.58387246590904     -2.64474989942717      1.91995944008003
  H           4.22850981121611      1.22904969213240     -0.97188789994130
  H           4.60139855930856     -1.02463784579683      1.01409210870021
  H          -4.00073501885599      1.93754128350084     -1.64939554015803
  H          -4.63082850053269      0.33169948636659     -1.96291703447823
  H          -5.00849956016512     -2.32106586741572      1.59466207015593
  H          -2.88962799222930      1.39378220762955      1.81691796187759
  H          -3.03344366353370      2.55542326376255      0.49179891176549
  H          -4.44078624507326      2.12756048914396      1.44974320374865
  H          -6.73894042356885     -0.87087078816383      1.36630558729892
  H          -6.20482479731943      0.76786728187093      1.70772077787739
  H          -6.00535730860797      2.45807616200888     -0.24757964323367
  H          -6.49044489241086      1.93559841642323     -1.85277949779991
  H           4.61211932595424      2.00516153475392      1.29976108396695
  H           4.84916874870017      0.85668578866318      2.61617802838556
  H          -6.92013183220076     -0.33973546174024     -1.02623072543277
  H           4.35871584843181     -2.63392397883467     -0.83367745800902
  H           3.22363230081307     -2.74297631789337     -2.17410693261184
  H           4.80223994683560     -2.01750473974339     -2.42928504401094
  H           2.08691117479024      2.15001169105338     -0.57789230416276
  H           2.07964753970299      1.56451215260840     -2.23677872098560
  H           0.60606555698827      2.21115187684514     -1.53424370774890
  H           6.84925218009200     -0.06601865470408      1.52438662721683
  H           7.75775297775916      0.79014862776733     -0.57190806042403
  H           6.47802824288867      1.98744177889628     -0.68986609789623
  H           7.18265570388844      1.93545212156176      2.97215925271659
  H           8.37117831515432      1.89617106962840      1.66664497357812
  H           6.98751753944450      2.98912684363064      1.57026848760933
