27
Coordinates from ORCA-job 443178 E -465.810915182940
  O           1.51603214050622      1.78348648018192      0.93166595268680
  C          -0.87061562273261     -0.17995991497749      0.22715735697312
  C          -0.13609665394360      0.86119596934665     -0.63234202407103
  C           1.33641245087707      0.97136685906187     -0.24344331943234
  C          -0.22909208706152     -1.54341897220914     -0.02089053330738
  C           1.99807289240360     -0.37435122791477     -0.06224189001791
  C           1.27040472894679     -1.48728325722804      0.04189503294135
  C          -2.36992016554359     -0.11949042744470      0.03356223427053
  C           3.49711836072317     -0.36853883589296      0.00922725999360
  C          -3.04765594903011      1.05923773702004      0.67804985623872
  C          -3.06814489742948     -1.02701046221877     -0.64496720256721
  H           1.27033746313740      1.25085220206741      1.69688425008858
  H          -0.68646776655714      0.08098970777924      1.27897349030402
  H          -0.21338257209472      0.56073709630998     -1.68215999945245
  H          -0.58597495770253      1.84971474818420     -0.54003984364005
  H           1.86492650079156      1.52600694221248     -1.02388873194258
  H          -0.60583864768911     -2.27424021585108      0.69998110719173
  H          -0.52235064241544     -1.92046949475557     -1.00782945890899
  H           1.78352514411805     -2.43700071245517      0.16556440261686
  H           3.84588987754166      0.31950626628417      0.78290127396629
  H           3.89253326994816     -1.36213204015950      0.22188681895555
  H           3.92860182353680     -0.02313360275553     -0.93576218836343
  H          -2.90195891029776      1.03917569861121      1.76264549798057
  H          -2.63105741394176      2.00588875101582      0.32502726506778
  H          -4.11848022631975      1.06349601508141      0.47681210627175
  H          -4.14036612715550     -0.92928239449505     -0.76318952371973
  H          -2.61150301261584     -1.89285291479865     -1.10389819012416
