26
Coordinates from ORCA-job 443156 E -390.578034937420
  C          -1.53449100499969     -0.19478759896307     -0.22302645588319
  C          -0.58446079588706     -0.55397702342100      0.89470136090837
  C          -0.86762315453649      0.89795713453724      0.57893806189398
  C           0.78979377663542     -1.13261487094896      0.63505480647969
  C           0.22777375239646      1.77163466201472      0.00528207285134
  C          -1.13931695530675     -0.43192830329005     -1.66324901973740
  C          -3.00761831926253     -0.42498833693588      0.03780410229119
  C           1.80677409867176     -0.19243171825376      0.04538025712526
  C           1.54028726239632      1.08347401582159     -0.22300372446185
  C           3.15424934483125     -0.79793069889673     -0.22088264498130
  H          -1.06086272949551     -0.94640634236408      1.78577370180914
  H          -1.52148266699895      1.41404592521920      1.27242812931616
  H           1.19452851175146     -1.50966693791074      1.58141187414497
  H           0.71580877603002     -2.01786918439342     -0.01117118467247
  H          -0.10431779009983      2.23109905725791     -0.93505480600130
  H           0.39543422375082      2.61336065286244      0.68658065218011
  H          -0.07970001670416     -0.26167355870752     -1.84316228481181
  H          -1.36968131721582     -1.45974259252772     -1.95766380476585
  H          -1.70213750253356      0.23041380711243     -2.32701813664766
  H          -3.25940464597291     -0.24732831263054      1.08508886337380
  H          -3.62258999225765      0.24334232412302     -0.57218680126102
  H          -3.29255855769496     -1.45300197224920     -0.20505523423910
  H           2.32803849798123      1.70129631435019     -0.64493841449019
  H           3.59276531108661     -1.20081785935289      0.69790867173650
  H           3.07432090070290     -1.63548161277161     -0.92182753442228
  H           3.84829799273164     -0.06839696968155     -0.63887050773509
