29
Coordinates from ORCA-job 443158 E -467.007330689939
  O           2.54112976133532     -1.40556809754599     -1.22526475539336
  C           1.92847797247531     -0.61938117731366     -0.17906446450092
  C           0.43397387516145     -0.95338554011381     -0.29618298264912
  C          -0.47143027461139     -0.26118275700450      0.72953798266168
  C           2.50482081789936     -1.04423908913631      1.16841737890680
  C           2.15834510419022      0.83558879817666     -0.50913243519347
  C          -1.91657022393194     -0.59349460471472      0.50784260848528
  C          -2.87824733352459      0.20272997190811      0.03652041056990
  C          -4.28339217229651     -0.30293305454009     -0.14286285901162
  C          -2.67962239202914      1.63900557578396     -0.35965913196768
  C           2.70309129338569      1.76225801971506      0.26853137500646
  H           3.47608998470445     -1.17093570637256     -1.26249059104512
  H           0.11082722655504     -0.68302377743776     -1.30423704510542
  H           0.33209569253724     -2.03920100579227     -0.21813576137191
  H          -0.18908641045150     -0.58283795684863      1.73681923240245
  H          -0.30304271316754      0.81524665750953      0.69352196870835
  H           2.06405861132620     -0.48967155192665      1.99681064258361
  H           2.31319271374851     -2.10646430672481      1.32165495763748
  H           3.58463301123538     -0.88394212664165      1.19346383180559
  H           1.83663713970656      1.10157636407696     -1.51285078004871
  H          -2.18992533943981     -1.62035513239519      0.74114021832063
  H          -4.37866185681077     -1.34680173048900      0.15657614094344
  H          -4.99040254519652      0.28923953455109      0.44756408988390
  H          -4.60009092626752     -0.21528993147394     -1.18736182255881
  H          -3.32645693906252      2.29412016405866      0.23283723203127
  H          -1.65349522740109      1.97990544043388     -0.24067316859318
  H          -2.96457105929706      1.78653383334578     -1.40627379256259
  H           2.83133042823208      2.77951945520121     -0.07947905327795
  H           3.03762478099508      1.55040173171063      1.27626857333304
