46
Coordinates from ORCA-job 44392570 E -1151.148911231940
  O          -2.09154028156605     -3.12466735572782      0.17053186344543
  O           2.42860857555776     -2.61007643607931     -1.35613912507039
  O           5.96428906959163      2.50252600161275      0.01233746910543
  O          -5.23035550609017      3.09598497771316     -1.46192179093747
  C           0.27977762740416     -0.42457900477983      0.63705843498278
  C           0.33628424198985      0.95716109449739      1.24118832595724
  C           1.14087651352692      1.89335101518002      0.34536506819794
  C           1.43973688703025     -0.89191227439443     -0.01975374704616
  C           2.52045220184027      1.33785938165833      0.14365071043692
  C           2.65784659362861     -0.05337639667063     -0.02273877679439
  C          -0.88784146819347     -1.18064044832065      0.72190670000773
  C          -2.11432613448064     -0.67835199740825      1.44461949175782
  C           1.35244610940005     -2.13757265174114     -0.65092241592199
  C          -0.92049877144520     -2.42924221681504      0.08845587575694
  C           3.63234683944761      2.16533143087863      0.14843396463932
  C           0.19005579323429     -2.89946010552556     -0.59753887062693
  C           3.95197641576660     -0.56766331606101     -0.14575637535981
  C          -2.92961634447416      0.34127112458180      0.67204922987678
  C           4.90785339171788      1.63379527867544      0.00105344300020
  C           5.06512208644847      0.26001146191401     -0.13510879895092
  C          -2.97785470382734      0.34059909015756     -0.72138336196984
  C          -3.67774804628449      1.30247135824868      1.34617032076696
  C          -3.74750672369298      1.25798560188922     -1.42076180974845
  C          -4.45335410997722      2.22996529928744      0.66156856116113
  C          -2.18435952244130     -4.38015161628832     -0.47422451573994
  C          -4.49068186511055      2.20830922452639     -0.72864437286684
  H           2.18123682599076     -3.43533667955085     -1.78689652929221
  H           6.78457017151115      2.00695141024780     -0.08902832363807
  H          -5.69198708540780      3.69712803901551     -0.86691823878281
  H          -0.66487895782053      1.35559371917332      1.38282208660099
  H           0.81084361416010      0.90747862367291      2.22928063476499
  H           0.62826475123826      1.98445527805253     -0.61968240548705
  H           1.19216929578227      2.89374943583709      0.77737243952351
  H          -2.75151108342869     -1.53167872968757      1.67978349433865
  H          -1.82554595183685     -0.24285557613001      2.40323607743348
  H           3.52087397523229      3.23463747048798      0.27696677071213
  H           0.16992228572164     -3.85614969534798     -1.10152729720677
  H           4.09854727186043     -1.63031573924558     -0.24796949462009
  H           6.05752026753437     -0.16788977033079     -0.22945900440531
  H          -2.39458107853158     -0.38607155900277     -1.27159178567696
  H          -3.65306710183189      1.33424084484429      2.42950336568942
  H          -3.77835006434385      1.25299473359086     -2.50229867094179
  H          -5.02295282333283      2.97316146261499      1.20945277238420
  H          -1.45848339777373     -5.09257614814055     -0.07006895697589
  H          -3.19099208888645     -4.74351161355722     -0.28081658029045
  H          -2.03614969483787     -4.28647902755276     -1.55457385218950
