20
CID 444173; DFT optimized geometry from ORCA OUT; energy -572.619470582617 Eh
O          0.869150        -1.353274         0.049387
O         -1.328238         1.257736         1.327275
O          1.129881         1.226822        -1.349363
O         -2.676834        -0.482382        -0.350739
O          2.731842        -0.107243         0.400401
C         -0.791748         1.006300         0.023262
C          0.736373         1.091411         0.000465
C         -1.276602        -0.346394        -0.506798
C          1.354314        -0.162498         0.627314
C         -0.542413        -1.491177         0.191866
H         -0.885154         0.701219         1.977560
H          2.048570         0.932535        -1.410682
H         -2.913672        -0.017465         0.463954
H          3.093978        -0.989221         0.551792
H         -1.191538         1.802679        -0.604059
H          1.050761         1.959953         0.593647
H         -1.055205        -0.394033        -1.573712
H          1.140856        -0.183207         1.712646
H         -0.812354        -2.445636        -0.254482
H         -0.818484        -1.529300         1.256991
