62
CID 44428631; DFT optimized geometry from ORCA OUT; energy -1459.972120470573 Eh
O          1.050667        -1.540724         1.290868
O          3.189024         2.592057         0.837970
O         -1.360068         2.129398        -0.566156
O         -1.293574        -1.830211         0.601910
O         -5.801152        -2.797335        -0.341215
O         -9.306755         0.390928        -0.273797
C          4.429439        -0.384373         0.459740
C          3.415338        -0.082342         1.591550
C          5.784997        -0.799489         1.070735
C          2.131122         0.512694         1.089262
C          3.888728        -1.393898        -0.528715
C          6.849054        -1.027362         0.040210
C          0.971467        -0.260380         0.936418
C          2.061106         1.838447         0.698539
C          3.779637        -2.824972        -0.083273
C         -0.260897         0.278336         0.445813
C          0.903481         2.401474         0.151468
C          7.788993        -0.166852        -0.355726
C         -0.237542         1.631575         0.016292
C          3.501167        -1.011074        -1.742440
C         -1.440259        -0.599705         0.432024
C          8.773429        -0.533784        -1.431618
C          7.956924         1.221043         0.196489
C         -2.802517        -0.068894         0.298198
C         -1.353618         3.454597        -1.067185
C         -3.847091        -0.903122         0.152302
C         -5.243883        -0.526024         0.046050
C         -6.222387        -1.512140        -0.202163
C         -5.698645         0.792177         0.184968
C         -7.569205        -1.187206        -0.306190
C         -7.033438         1.132831         0.085150
C         -7.975486         0.132521        -0.163245
H          0.156614        -1.945544         1.056943
H          3.014461         3.492514         0.543124
H         -6.557809        -3.374590        -0.492412
H         -9.464687         1.334452        -0.154167
H          4.595526         0.548189        -0.083539
H          3.199533        -0.991969         2.149899
H          3.889715         0.618725         2.281721
H          6.085188        -0.023180         1.776323
H          5.647334        -1.709839         1.662150
H          6.815806        -1.990328        -0.461715
H          3.194728        -2.906645         0.834344
H          3.294540        -3.433344        -0.846249
H          4.764921        -3.255617         0.116156
H          0.925839         3.429067        -0.180063
H          3.084217        -1.713294        -2.454623
H          3.583073         0.021256        -2.060644
H          9.802147        -0.466629        -1.061757
H          8.607985        -1.546049        -1.800778
H          8.701515         0.155724        -2.279429
H          7.229186         1.466186         0.967073
H          8.959181         1.351308         0.617761
H          7.858518         1.961428        -0.604150
H         -2.930253         0.998475         0.321838
H         -1.185263         4.184004        -0.269685
H         -0.594116         3.580524        -1.843582
H         -2.339440         3.611652        -1.498773
H         -3.631469        -1.962465         0.102002
H         -4.977394         1.572335         0.386577
H         -8.313377        -1.950619        -0.498941
H         -7.349664         2.162711         0.202571
