45
Coordinates from ORCA-job 44425165 E -1038.039771902583
  O          -1.92810956135157      2.49130747986697      0.27660341688929
  O          -0.25866417168531     -2.56743260719521      0.77020023935392
  O          -2.80715641594439     -2.13047852867139     -0.04065305047502
  O          -6.00881671630378      0.62659581761270     -1.18556118902295
  C           4.15179778164468      0.44992031514150     -0.12982159914308
  C           4.62558484432578     -0.98711061356622      0.14327095021107
  C           2.62740717494443      0.56325847914035     -0.01336711907902
  C           3.74464798288102     -2.01872821596063     -0.53702030698493
  C           1.77353129271834     -0.55349641280371      0.08370330093118
  C           2.33619706478595     -1.95528023335978      0.03671444472678
  C           4.84108805083402      1.37316955582566      0.89062450526568
  C           4.57542913420283      0.87603253059882     -1.54956274941350
  C           0.38261180456859     -0.34226864013107      0.20395606690802
  C           2.06220854568365      1.83770012872343     -0.02167191208118
  C          -0.15925063892989      0.95634818110345      0.17423685316641
  C           0.69827708750509      2.04520515405023      0.06440220039593
  C          -0.57179657512199     -1.45703783581247      0.40439610038245
  C          -1.60954027120616      1.17971686291422      0.25328091703812
  C          -2.54891992671997      0.19413240728756      0.25981991383315
  C          -4.03748885884627      0.46739665290783      0.27687962566153
  C          -2.07981219542517     -1.17779145957599      0.17332860496772
  C          -4.66017500327325      0.17872561642885     -1.10125952817884
  C          -4.76153063707360     -0.27208212390242      1.40947309003856
  H          -2.88902385896514      2.58915951481594      0.30739410657484
  H          -6.58147858049765     -0.03776446427213     -0.78984616582967
  H           5.66730345247887     -1.07852252554663     -0.17408200492220
  H           4.60957231530288     -1.16971668760911      1.22309967371165
  H           3.71891037750525     -1.84456596194782     -1.61643137904133
  H           4.14739715583467     -3.02351937623107     -0.39469004050332
  H           1.66343798359372     -2.60174189917498     -0.52394268474785
  H           2.33230693114227     -2.36752779623257      1.05031003884257
  H           4.49625547789844      1.16012082067324      1.90391732980368
  H           5.92068379044950      1.21098114013074      0.85804725992476
  H           4.66319116007717      2.42900831273823      0.68603124785060
  H           5.66271072005167      0.83262164713303     -1.64552748543953
  H           4.13864251968252      0.22842018987924     -2.31021347441772
  H           4.25759626618401      1.89719269382272     -1.76452059075575
  H           2.70632894775329      2.70250439029890     -0.10277767995971
  H           0.29810140352819      3.04719964989426      0.04903132390012
  H          -4.21904244176979      1.53617024324620      0.45237961494777
  H          -4.57649302538685     -0.88701008086360     -1.32242602379664
  H          -4.11146501529994      0.72950352968854     -1.86750057454006
  H          -4.31177014355467     -0.03502684012403      2.37481469186296
  H          -5.80804241686377      0.03424039068199      1.44961750012255
  H          -4.70949881135762     -1.34970440162381      1.26386954102099
