77
CID 44449940; DFT optimized geometry from ORCA OUT; energy -1469.369715400596 Eh
O          0.032189        -0.639648         1.277514
O          5.746389         2.388663         2.024905
O          6.821820        -0.096353         1.452731
O          4.299444        -3.142844        -1.181346
O         -5.510444         0.719441        -1.744411
C         -0.531129         0.363692        -0.832282
C          0.170940        -0.842056        -0.155756
C         -2.011869         0.089821        -0.444225
C          2.389453         0.409451        -0.096907
C          3.869109         0.394965        -0.584341
C          1.656134        -0.879664        -0.416058
C          0.111198         1.637940        -0.274364
C         -0.695852        -2.030748        -0.553994
C          1.616264         1.666031        -0.558173
C         -2.131971        -1.460500        -0.542584
C          4.525307        -0.958493        -0.227095
C         -3.115670         0.819747        -1.228109
C         -0.345403         0.286125        -2.357170
C          4.689867         1.514903         0.084328
C          2.285696        -2.009192        -0.763740
C          4.689796        -1.158311         1.290211
C          3.964628         0.583494        -2.107132
C          3.748879        -2.128283        -0.795090
C          4.872971         1.338241         1.582592
C          5.483791        -0.024840         1.923187
C         -4.517682         0.340834        -0.784908
C         -3.006458         2.345099        -1.161868
C         -4.902033         0.779850         0.639915
C         -5.899473        -0.135088         1.310606
C         -7.307891        -0.155793         0.748974
C         -5.507337        -0.890245         2.335809
C         -8.168351        -1.310062         1.258137
C         -8.017499         1.184013         1.007458
H          0.334668        -1.448302         1.706501
H          5.690061         2.455665         2.984962
H          7.219607         0.770547         1.612520
H         -5.621750         1.675996        -1.711398
H         -2.101987         0.368218         0.606326
H          2.392099         0.453251         0.996511
H         -0.337880         2.524723        -0.719986
H         -0.073743         1.689510         0.798871
H         -0.423316        -2.387228        -1.546770
H         -0.566433        -2.869757         0.131674
H          2.051746         2.538963        -0.069940
H          1.765495         1.812204        -1.626906
H         -2.712126        -1.855123         0.290411
H         -2.657790        -1.749243        -1.453932
H          5.522114        -0.992242        -0.668058
H         -3.046377         0.520328        -2.278303
H         -0.921504        -0.526660        -2.797265
H         -0.677794         1.213125        -2.825692
H          0.695934         0.131222        -2.636604
H          5.681729         1.532312        -0.372787
H          4.242329         2.490948        -0.106570
H          1.739701        -2.916487        -0.990258
H          3.714501        -1.226153         1.779827
H          5.208189        -2.100419         1.474058
H          4.988669         0.398913        -2.435358
H          3.315290        -0.106945        -2.646889
H          3.703614         1.598452        -2.405950
H          3.909895         1.427036         2.097415
H          5.472429        -0.148890         3.017355
H         -4.532461        -0.747465        -0.822891
H         -2.908792         2.700200        -0.134354
H         -2.146972         2.708615        -1.721503
H         -3.883038         2.827257        -1.601568
H         -4.004638         0.816842         1.257557
H         -5.282736         1.805049         0.592951
H         -7.208930        -0.259467        -0.335705
H         -6.168600        -1.585338         2.833875
H         -4.493400        -0.834080         2.714172
H         -8.358827        -1.226852         2.330953
H         -9.135571        -1.305306         0.752173
H         -7.694967        -2.275441         1.072046
H         -8.132871         1.355770         2.080417
H         -7.467995         2.027950         0.589233
H         -9.010934         1.180659         0.554643
