35
CID 44446897; DFT optimized geometry from ORCA OUT; energy -994.147762887143 Eh
O          1.881500        -1.553769        -0.877399
O          0.399252         1.643740         1.244381
O         -1.977467        -2.381046         0.969103
O         -5.616225         0.324614        -0.386410
O          6.297599        -0.074652        -0.409701
C         -0.042324        -0.517605         0.262577
C          0.509815        -1.162127        -1.008617
C         -1.510957        -0.228193         0.105344
C          0.829618         0.675744         0.648867
C          2.252844         0.521109         0.304773
C          2.718072        -0.604518        -0.400187
C         -2.453984        -1.203970         0.455757
C         -1.992595         0.955608        -0.437464
C          3.192405         1.458131         0.752339
C          4.077029        -0.793564        -0.626600
C         -3.812256        -0.991692         0.282215
C         -3.350474         1.192549        -0.626693
C         -4.266817         0.210481        -0.258712
C          4.540254         1.289194         0.527585
C          4.980701         0.149320        -0.161294
C         -6.138096         1.528094        -0.925604
H         -2.716998        -2.951773         1.204774
H          6.823273         0.649908        -0.051252
H          0.089022        -1.242912         1.073564
H          0.423915        -0.464395        -1.849618
H         -0.034580        -2.072475        -1.247060
H         -1.290999         1.734432        -0.701090
H          2.822694         2.315867         1.298287
H          4.420770        -1.661058        -1.171701
H         -4.537077        -1.748573         0.558015
H         -3.672711         2.134336        -1.043029
H          5.257814         2.019119         0.884111
H         -5.872718         2.389460        -0.305976
H         -5.782341         1.693994        -1.946668
H         -7.218885         1.408144        -0.934541
