39
CID 44446884; DFT optimized geometry from ORCA OUT; energy -1108.659928685116 Eh
O          2.267982        -0.141384         1.960387
O         -1.638159         2.147695        -0.069776
O          0.565143         0.087422        -1.766373
O         -5.262764        -0.866192        -0.179565
O         -4.312249         1.580223        -0.467983
O          6.613490        -0.068395         0.218455
C          0.244893         0.192842         0.623878
C          0.921412        -0.584211         1.746226
C         -1.210111        -0.148483         0.440373
C          1.067149         0.047683        -0.660453
C          2.517302        -0.069624        -0.441663
C          3.053195        -0.107556         0.858711
C         -2.099052         0.866349         0.059962
C         -1.698799        -1.438341         0.604957
C          3.403716        -0.050119        -1.525164
C         -3.449623         0.583430        -0.127367
C          4.427928        -0.099564         1.064914
C         -3.044401        -1.737705         0.405909
C         -3.917190        -0.726004         0.040768
C          4.767882        -0.052875        -1.337074
C          5.277926        -0.069738        -0.030421
C         -1.636172         2.674204        -1.406013
C         -5.831702        -2.157325        -0.037307
H         -5.189898         1.182661        -0.554834
H          7.099138        -0.059170        -0.614552
H          0.313114         1.256673         0.876821
H          0.953103        -1.656150         1.526833
H          0.406786        -0.434644         2.692452
H         -1.029649        -2.242885         0.876363
H          2.979182        -0.015285        -2.519659
H          4.827089        -0.130650         2.068675
H         -3.393626        -2.751145         0.536014
H          5.444568        -0.032170        -2.183498
H         -1.158826         3.650044        -1.340443
H         -1.059866         2.019857        -2.062275
H         -2.654495         2.786986        -1.779244
H         -5.705633        -2.532250         0.982218
H         -6.891264        -2.047965        -0.255710
H         -5.384266        -2.863574        -0.742113
