51
CID 445354; DFT optimized geometry from ORCA OUT; energy -855.203932182264 Eh
O          8.311973         0.900944         1.502201
C         -4.442884        -0.728223         0.609758
C         -5.823854        -0.050930         0.579373
C         -5.742355         1.451972         0.789859
C         -3.410621         0.079508        -0.196192
C         -4.929981         2.071183        -0.337172
C         -3.658589         1.323895        -0.652404
C         -4.612909        -2.141802         0.022734
C         -3.951825        -0.861539         2.063530
C         -2.129851        -0.602358        -0.421091
C         -2.735446         2.098524        -1.553295
C         -0.913479        -0.066996        -0.214414
C          0.358397        -0.729960        -0.422002
C          0.347924        -2.144762        -0.927666
C          1.497391        -0.041006        -0.150446
C          2.852267        -0.492878        -0.283550
C          3.920631         0.277688         0.015049
C          5.316629        -0.108613        -0.094167
C          5.621952        -1.504838        -0.567164
C          6.261745         0.800592         0.221758
C          7.744681         0.639370         0.211714
H          7.843163         0.354197         2.143306
H         -6.289739        -0.243272        -0.393298
H         -6.462943        -0.520453         1.332152
H         -6.741742         1.892037         0.824828
H         -5.269538         1.671994         1.750802
H         -5.538166         2.127788        -1.250303
H         -4.672072         3.109314        -0.099750
H         -5.447532        -2.643521         0.517623
H         -4.830592        -2.099656        -1.046629
H         -3.728748        -2.762150         0.170297
H         -4.638743        -1.483263         2.643408
H         -2.963397        -1.321975         2.097914
H         -3.877137         0.111961         2.549736
H         -2.184443        -1.639530        -0.729588
H         -2.227626         2.901109        -1.007899
H         -1.974288         1.475877        -2.016516
H         -3.318473         2.584672        -2.341864
H         -0.853725         0.951611         0.155348
H         -0.196776        -2.796304        -0.239011
H         -0.160818        -2.206423        -1.893208
H          1.347902        -2.552018        -1.049955
H          1.379330         0.977183         0.211631
H          3.018973        -1.500174        -0.643265
H          3.739410         1.288818         0.369795
H          5.114710        -2.242192         0.059486
H          5.263456        -1.652357        -1.589135
H          6.685722        -1.725918        -0.553741
H          5.927405         1.779325         0.555861
H          8.200947         1.382479        -0.447408
H          8.050992        -0.346377        -0.148146
