50
CID 44559616; DFT optimized geometry from ORCA OUT; energy -1227.757851476066 Eh
O         -4.874905         0.915327         0.040201
O         -2.794149        -1.578309        -1.938316
O          2.262635        -1.450043        -1.225256
O          2.835787         1.691380        -1.394735
O          2.576914        -2.612463         1.277419
O          3.847313         0.686349         0.844152
C         -2.694377         0.424802        -0.671643
C         -2.598160         1.099600         0.720368
C         -4.093935         0.835017        -1.146885
C         -4.046644         1.569045         0.989857
C         -2.558988        -1.100181        -0.605885
C         -1.600285         2.264802         0.793036
C         -1.213975        -1.553424        -0.095343
C         -0.150386         1.853516         0.796993
C         -0.074791        -1.369440        -0.877842
C         -1.069158        -2.143749         1.153470
C          0.641219         1.985183        -0.347089
C          0.429299         1.325867         1.945814
C          1.182255        -1.738750        -0.433429
C          0.187263        -2.516246         1.617851
C          1.974312         1.602455        -0.333721
C          1.764166         0.938538         1.965928
C          1.319907        -2.305203         0.843377
C          2.544391         1.073275         0.831107
C          3.053542        -2.558091        -1.657804
C          2.278646         1.831551        -2.690540
H         -2.602467        -2.522435        -1.952961
H          2.535360        -2.904136         2.194747
H          4.164784         0.723215        -0.069105
H         -1.923022         0.796940        -1.347881
H         -2.307022         0.358824         1.465942
H         -4.554917         0.113879        -1.816717
H         -4.058839         1.814877        -1.644063
H         -4.119271         2.658999         0.862042
H         -4.407175         1.314463         1.986523
H         -3.339131        -1.482674         0.064406
H         -1.793487         2.946697        -0.040381
H         -1.807847         2.832848         1.705515
H         -0.153898        -0.921606        -1.859077
H         -1.939700        -2.310938         1.775933
H          0.205314         2.394104        -1.248377
H         -0.167723         1.212086         2.842655
H          0.294400        -2.961218         2.601487
H          2.213761         0.518456         2.856016
H          3.539740        -3.053366        -0.817690
H          2.435434        -3.277300        -2.203958
H          3.805850        -2.146913        -2.328392
H          1.550439         1.040274        -2.884988
H          1.803774         2.808657        -2.816890
H          3.107488         1.745466        -3.389666
