41
CID 44559751; DFT optimized geometry from ORCA OUT; energy -886.367570123978 Eh
O          0.238222         1.065650         0.913164
O         -1.200725         0.904061        -2.289383
C         -2.435108        -0.217260        -0.573299
C          0.116214        -0.479571        -0.875155
C         -3.693147         0.519312        -1.030234
C          0.992112         0.585437        -0.213220
C         -1.191426         0.143573        -1.348332
C         -4.900903         0.115785        -0.226209
C          2.315899         0.048448         0.225847
C         -5.734188        -0.917471        -0.654694
C         -5.190738         0.739028         0.988208
C          3.483263         0.515270        -0.221854
C          4.827613         0.063325         0.144228
C         -6.824881        -1.320090         0.107349
C         -6.279584         0.341106         1.754164
C         -7.100831        -0.692100         1.316311
C          5.065297        -0.986020         1.042286
C          5.933364         0.705484        -0.424351
C          6.357886        -1.370926         1.358291
C          7.229822         0.320278        -0.109317
C          7.447735        -0.720011         0.784626
H          0.770164         1.728690         1.367367
H         -2.222451        -0.023536         0.483285
H         -2.571895        -1.303357        -0.644260
H          0.641336        -0.872810        -1.746564
H         -0.060453        -1.291792        -0.167350
H         -3.521610         1.593741        -0.943181
H         -3.859463         0.320273        -2.090033
H          1.141287         1.396783        -0.934194
H          2.271046        -0.752351         0.957873
H         -5.528655        -1.407548        -1.599691
H         -4.557024         1.547881         1.333969
H          3.457427         1.324343        -0.948166
H         -7.462209        -2.121261        -0.245755
H         -6.489917         0.840840         2.691586
H         -7.951649        -1.001345         1.909921
H          4.232763        -1.507046         1.496275
H          5.768499         1.517620        -1.122574
H          6.519655        -2.184177         2.054532
H          8.068819         0.832733        -0.562612
H          8.456221        -1.024455         1.033160
