20
CID 445612; DFT optimized geometry from ORCA OUT; energy -477.521393802475 Eh
O          0.226711         2.162289         0.041816
O          2.505210         0.547570         0.494756
O         -2.331871         0.885598         0.290823
N         -0.032158        -2.029257        -0.321456
C          0.091336         0.789146         0.386314
C          1.323787         0.055517        -0.117898
C         -1.181688         0.184535        -0.190357
C          1.199437        -1.436062         0.189573
C         -1.231335        -1.317901         0.100983
H         -0.629447         2.582730         0.192240
H          2.489678         1.509770         0.418881
H         -2.464184         0.653921         1.218775
H         -0.001407        -2.102307        -1.331174
H          0.062246         0.683918         1.483406
H          1.377848         0.196576        -1.207690
H         -1.189058         0.350301        -1.271073
H          1.231941        -1.570826         1.275377
H          2.055481        -1.969113        -0.224625
H         -2.105180        -1.759419        -0.380012
H         -1.352089        -1.463120         1.182960
