43
CID 44566715; DFT optimized geometry from ORCA OUT; energy -737.580683175162 Eh
O          1.632940         2.228513         1.361524
O         -3.403313         0.079040        -1.382826
C         -0.338222         1.178790         0.424816
C          0.171479        -0.249656         0.709516
C          1.125156        -0.764396        -0.401986
C          0.824328         2.161031         0.167688
C          2.273244         0.228703        -0.604973
C          1.759566         1.631339        -0.916751
C         -1.410575         1.137740        -0.664756
C          1.598819        -2.217032        -0.164688
C         -0.992988        -1.173118         0.929234
C         -2.614862         0.328178        -0.209755
C          0.339400         3.568725        -0.168851
C         -2.238268        -0.947612         0.511949
C          2.390018        -2.757113        -1.359149
C          2.390866        -2.408031         1.131323
C         -3.358661        -1.911918         0.775614
H          1.085324         2.573094         2.076225
H         -4.262308        -0.263313        -1.115180
H         -0.830092         1.530958         1.342855
H          0.753212        -0.206319         1.633659
H          0.544669        -0.793278        -1.331402
H          2.892749         0.271459         0.292528
H          2.915663        -0.103424        -1.422378
H          1.221163         1.628333        -1.868633
H          2.594530         2.327984        -1.022773
H         -1.751262         2.136565        -0.934727
H         -1.024194         0.676711        -1.575234
H          0.693322        -2.826515        -0.089833
H         -0.792695        -2.091705         1.472237
H         -3.210437         0.939136         0.487425
H         -0.376135         3.924397         0.578804
H          1.192155         4.248430        -0.177944
H         -0.144459         3.613582        -1.144479
H          2.561800        -3.830280        -1.251161
H          1.851237        -2.597018        -2.296210
H          3.367444        -2.278666        -1.447721
H          1.821982        -2.103696         2.011152
H          2.658759        -3.459011         1.260146
H          3.318778        -1.832552         1.120965
H         -3.026134        -2.743877         1.396049
H         -4.192688        -1.420035         1.289657
H         -3.752939        -2.327422        -0.156197
