75
CID 44566900; DFT optimized geometry from ORCA OUT; energy -1617.436926030935 Eh
O          1.069479        -3.048076         0.395413
O          0.797637         2.355842        -1.746418
O         -7.365219        -0.094142         1.142750
O         -1.454490        -2.910042         0.062182
O         -1.275814         2.949940         0.147092
O          7.445522         0.630946         1.832694
O          7.750203         0.588186        -0.394601
C          1.173872        -0.700532        -0.403443
C          0.466931         0.651451        -0.001003
C         -3.261043        -0.636279        -0.114737
C          2.690644        -0.311005        -0.270904
C         -3.866480         0.778689         0.123383
C         -1.030988         0.606010        -0.121521
C         -1.731105        -0.543980         0.025060
C         -5.418257         0.909547         0.148944
C          0.548446        -1.753857         0.518486
C          2.692733         1.137064        -0.843927
C          1.236672         1.565688        -0.956321
C         -3.873112        -1.567537         0.957336
C         -3.165727         1.815924        -0.763377
C         -0.958846        -1.805627         0.203303
C          3.780693        -1.166839        -0.951931
C         -5.937643        -0.117473         1.176201
C          0.885136        -1.080063        -1.869216
C         -1.760115         1.914827        -0.252022
C          0.781387         1.134033         1.450240
C         -5.399160        -1.521717         0.953044
C         -3.514931        -1.211260        -1.527788
C         -5.786985         2.309893         0.674631
C         -6.097122         0.733721        -1.217318
C          5.158327        -0.473502        -0.870294
C          3.887429        -2.598045        -0.424024
C          5.682902        -0.253584         0.544378
C          7.061769         0.361329         0.567181
C          8.752453         1.207762         1.979207
H          0.297995        -3.627787         0.263982
H         -7.696042        -0.718177         1.797101
H          2.926704        -0.287044         0.793335
H         -3.571411         1.021974         1.153260
H          0.657626        -1.423613         1.558647
H          3.238038         1.844477        -0.216381
H          3.136016         1.192785        -1.836874
H         -3.537380        -2.588722         0.807521
H         -3.506750        -1.251775         1.940607
H         -3.165034         1.507474        -1.810706
H         -3.616127         2.801817        -0.695327
H          3.542041        -1.220726        -2.018625
H         -5.594205         0.224072         2.164547
H         -0.178949        -1.085250        -2.098012
H          1.358689        -0.395418        -2.570782
H          1.272902        -2.079077        -2.061324
H          0.304269         0.492787         2.189265
H          1.846736         1.162442         1.661667
H          0.379516         2.137075         1.566287
H         -5.798688        -1.917275         0.017203
H         -5.775535        -2.176425         1.745952
H         -2.935022        -2.121632        -1.661537
H         -4.558817        -1.465007        -1.679513
H         -3.224962        -0.507417        -2.307281
H         -5.215256         2.561822         1.571143
H         -5.605400         3.084192        -0.070500
H         -6.846494         2.334315         0.925734
H         -7.128463         1.077662        -1.159234
H         -5.587678         1.326241        -1.978884
H         -6.124009        -0.298227        -1.555565
H          5.878159        -1.085867        -1.416018
H          5.141438         0.485031        -1.389080
H          3.962950        -2.622561         0.665217
H          3.020226        -3.194341        -0.685415
H          4.779025        -3.078213        -0.833719
H          5.028386         0.397095         1.129609
H          5.738803        -1.191314         1.103108
H          8.889467         1.354755         3.047033
H          9.512949         0.534901         1.583927
H          8.811351         2.158581         1.450279
