54
CID 44568160; DFT optimized geometry from ORCA OUT; energy -1264.222942740529 Eh
O         -1.759934        -1.745447        -2.229885
O          4.294927         2.370915        -0.353615
O          2.563655        -0.794846        -2.107022
O          3.064792         2.183722         1.516842
N         -0.428936        -2.078517         0.936603
N         -2.904817         0.227153        -1.942830
C         -0.824052        -0.716636         0.630898
C         -2.257880        -0.868234         0.035585
C         -2.734421        -2.230989         0.620755
C          0.226964        -0.017150        -0.208943
C         -1.596789        -2.687765         1.540510
C          1.578184        -0.051973         0.525329
C          0.801027        -2.149013         1.694030
C          1.955562        -1.505775         0.912721
C         -3.118454         0.335755         0.318808
C         -2.241517        -0.902983        -1.508933
C         -3.456475         0.957416        -0.887945
C          2.671771         0.643013        -0.249751
C          3.216320        -1.536909         1.720332
C         -3.555993         0.877075         1.511284
C         -4.222733         2.109064        -0.931212
C         -4.334981         2.037395         1.490693
C          3.333315         1.784523         0.404802
C          3.088551         0.262993        -1.468291
C         -4.660150         2.642529         0.282271
C          4.316970        -2.196311         1.383524
C          4.971693         3.475467         0.255544
C          3.054654        -1.046452        -3.421634
H         -3.053484         0.411777        -2.921115
H         -0.947397        -0.142821         1.570828
H         -3.684057        -2.130060         1.143554
H         -2.858809        -2.941163        -0.195483
H          0.312655        -0.516836        -1.172171
H         -0.065458         1.021478        -0.382640
H         -1.494583        -3.773198         1.585799
H         -1.759588        -2.320292         2.571082
H          1.464827         0.506972         1.457207
H          0.696694        -1.644073         2.674765
H          1.036200        -3.196422         1.893473
H          2.097990        -2.084557        -0.001400
H          3.203542        -0.957486         2.640855
H         -3.300032         0.409656         2.454345
H         -4.477274         2.582274        -1.870995
H         -4.684554         2.467625         2.419727
H          3.880355         0.793256        -1.984334
H         -5.261957         3.542208         0.277765
H          5.202713        -2.182262         2.006281
H          4.370053        -2.773531         0.466739
H          5.472643         3.162084         1.171368
H          5.698249         3.814230        -0.478868
H          4.269399         4.274114         0.494062
H          4.130581        -1.238227        -3.402445
H          2.530797        -1.928552        -3.779983
H          2.841972        -0.202056        -4.081905
