40
CID 44560847; DFT optimized geometry from ORCA OUT; energy -811.129623766872 Eh
O          2.363397         3.427889         1.320735
C          3.061684         2.303475        -0.637869
C          3.010205         1.067059        -1.545772
C          2.144977         2.216491         0.578893
C          3.362894        -0.222465        -0.844954
C          0.702494         2.073754         0.212379
C          4.639017        -0.422254        -0.314798
C          2.419316        -1.237571        -0.694085
C         -0.062774         1.037133         0.576848
C          4.960545        -1.597598         0.351347
C          2.735750        -2.417122        -0.028519
C          4.007703        -2.600510         0.499312
C         -1.449145         0.867897         0.216222
C         -3.577918        -0.469450         0.248695
C         -2.180297        -0.203267         0.569402
C         -4.376844         0.408271        -0.499935
C         -4.162833        -1.658138         0.705545
C         -5.699567         0.105595        -0.776344
C         -5.488443        -1.962274         0.428788
C         -6.264192        -1.081284        -0.314267
H          1.757021         3.428288         2.070026
H          4.078665         2.464117        -0.272630
H          2.788642         3.192027        -1.213617
H          2.011966         0.974545        -1.977877
H          3.698377         1.228378        -2.380371
H          2.443106         1.353623         1.185766
H          0.282369         2.877626        -0.388309
H          5.390002         0.351477        -0.425080
H          1.424143        -1.098511        -1.098425
H          0.385158         0.245259         1.172519
H          5.956751        -1.732918         0.753758
H          1.987455        -3.193072         0.075786
H          4.257137        -3.517375         1.017981
H         -1.893635         1.660654        -0.377499
H         -1.690804        -0.972356         1.161481
H         -3.960070         1.336104        -0.868556
H         -3.562653        -2.349034         1.285828
H         -6.297262         0.798031        -1.355759
H         -5.915624        -2.887712         0.793815
H         -7.298430        -1.313924        -0.532590
