59
CID 44567180; DFT optimized geometry from ORCA OUT; energy -1682.869088341866 Eh
O         -2.520901         2.252429        -0.364773
O          2.421016         2.079785        -0.235096
O         -1.153708         3.666434         1.505728
O          4.697750         0.639859         0.118741
O         -4.891915         0.930746        -0.405752
O          1.197910         3.212241        -2.372196
O         -4.481263        -3.840561        -0.245798
C         -0.584712        -1.117129         0.673006
C          0.271980        -1.279754        -0.680395
C         -0.225349         0.139121         1.408934
C          1.727440        -1.425788        -0.343412
C         -2.050041        -1.220043         0.361188
C          0.006416        -0.165796        -1.648916
C         -0.934258         1.320077         1.140536
C          2.543010        -0.289280        -0.315536
C         -2.788885        -0.050784         0.137544
C          0.793742         0.995356        -1.591546
C         -2.120442         1.279366         0.242335
C          1.963971         1.042168        -0.668950
C          0.874809         0.143738         2.254337
C          2.221682        -2.670767         0.027236
C         -2.620222        -2.477401         0.223483
C         -1.066346        -0.255292        -2.526978
C         -0.480696         2.512566         1.731989
C          3.881155        -0.443515         0.091584
C         -4.144780        -0.182413        -0.215399
C          0.450447         2.083366        -2.414547
C          1.336166         1.328704         2.819944
C          3.546011        -2.825548         0.424015
C         -3.958789        -2.587606        -0.129565
C          0.642834         2.500644         2.554670
C          4.362467        -1.699089         0.451689
C         -1.383729         0.821275        -3.342096
C         -4.720353        -1.444763        -0.345324
C         -0.636424         1.983527        -3.281599
C          2.606256         1.350148         3.620067
C          4.097343        -4.177475         0.783547
H         -0.710894         4.379902         1.979987
H          5.591945         0.349788         0.334442
H         -5.807419         0.675090        -0.567449
H          0.829947         3.850694        -2.994283
H         -5.414549        -3.785989        -0.480473
H         -0.295514        -1.976536         1.278726
H         -0.083210        -2.215306        -1.113587
H          1.412918        -0.778368         2.433230
H          1.564293        -3.532421         0.005740
H         -2.041923        -3.376218         0.391882
H         -1.666969        -1.154496        -2.550181
H          0.992477         3.438053         2.975811
H          5.399541        -1.794973         0.759578
H         -2.228073         0.762246        -4.016322
H         -5.770210        -1.530981        -0.609909
H         -0.896003         2.833352        -3.903205
H          2.609903         2.158732         4.352097
H          2.762261         0.406378         4.144281
H          3.455619         1.504270         2.948026
H          4.806495        -4.111212         1.610361
H          3.301623        -4.865992         1.068632
H          4.626791        -4.618098        -0.066058
