54
Coordinates from ORCA-job 445639 E -856.709464202945
  O           6.77495502346736     -0.82948414938184     -0.43728876910128
  O           5.58019664384737     -0.96402941680290      1.42232429105094
  C          -2.86324419128443     -1.48123657996288     -0.31254735357002
  C          -4.02271533556983     -1.22880258537834      0.65024841284096
  C          -1.60806079045488     -2.00151844182577      0.38409084162717
  C          -0.24483798804752      1.84640201367674     -0.37491678479583
  C           0.92619752813200      1.29318159841660      0.43206573458374
  C          -5.32043426829145     -0.78033699803947     -0.02511658367444
  C          -1.52155312346525      1.99832783166422      0.44609727611599
  C           2.17550714495533      1.04059990313747     -0.40714377491580
  C          -0.43023791851702     -2.22043139139630     -0.56168268327417
  C          -5.25229114706698      0.60461367659880     -0.69500253232891
  C          -2.72094192922312      2.47318007821032     -0.38478991601842
  C           3.31244727510468      0.40801943813908      0.38985284095673
  C           0.82875125911853     -2.72594684141689      0.13907336805479
  C          -5.04724013081832      1.71693449804338      0.28992084366308
  C          -3.98652807855939      2.51223160323791      0.41695983863639
  C           4.53689341331741      0.11647938625861     -0.46668241002589
  C           2.00363971080854     -2.93569057778979     -0.81212026089414
  C           5.64326680216382     -0.59891539006856      0.28461086185427
  H           6.68021654717543     -0.48220204840340     -1.33360447969182
  H          -3.17741800052318     -2.20079505426996     -1.07763352575404
  H          -2.61421546729640     -0.56074406373612     -0.84812687644151
  H          -4.21979387592663     -2.14872333942767      1.21021838452194
  H          -3.72260809406228     -0.47980176017622      1.38972055362204
  H          -1.31292990446758     -1.29685556909557      1.16945452416937
  H          -1.84126366614523     -2.94140207847328      0.89679913819376
  H           0.03124166250274      2.81253850937082     -0.81227929673618
  H          -0.44363757025868      1.17716822442787     -1.21974188759219
  H           1.16739882031190      1.98123807834550      1.24954477863761
  H           0.62052329393055      0.35548235590297      0.90665856497932
  H          -5.60920839059973     -1.52004117168022     -0.77897639918504
  H          -6.12353117698537     -0.76919357533534      0.71856295441025
  H          -1.77051314921143      1.03813811626965      0.90534787597359
  H          -1.35067207336233      2.69498097411656      1.27367684718152
  H           1.91386534448871      0.38641519274018     -1.24653614441828
  H           2.51368873401402      1.98342104534313     -0.85246094566419
  H          -0.71962888324314     -2.93105204500739     -1.34443977989407
  H          -0.20234897005553     -1.28083482814457     -1.07740530687629
  H          -4.47413860212920      0.60800704129831     -1.45861454084974
  H          -6.19801726108715      0.77268949290323     -1.22130506404216
  H          -2.50505629360956      3.47349235558224     -0.77733968063797
  H          -2.83260384546744      1.82050624740741     -1.25253051812706
  H           3.60011266434816      1.06004840028815      1.21823189364986
  H           2.97368294501664     -0.52361163109445      0.84616873692903
  H           1.11344559294296     -2.01603988209551      0.92180595468463
  H           0.60367317437601     -3.66549333583559      0.65394821209388
  H          -5.86864094573222      1.86194510475265      0.98815972330526
  H          -4.00812603768955      3.25780383447503      1.20824145732260
  H           4.26053195185205     -0.50856207742608     -1.32390646113762
  H           4.94517793131864      1.04343937743386     -0.88577039359652
  H           2.90179434571325     -3.24967298736239     -0.27694644942594
  H           1.77369017393025     -3.69948062146884     -1.55901181747139
  H           2.23891312631453     -2.01415693694533     -1.35034127291781
