27
Coordinates from ORCA-job 445789 E -390.847722695549
  O           2.68697738970450     -1.48793820832445     -0.13924086777863
  C           0.37087810912645     -0.81012373447457      0.15588974888664
  C          -0.73973880934248      0.17551275122893     -0.20385184234042
  C           1.77301656993424     -0.39466550513496     -0.28716839968790
  C          -2.13295815812969     -0.34645701951592      0.14027278746725
  C           2.29319662212113      0.85402662545254      0.42294659963555
  C          -3.25254307174218      0.63068466530300     -0.21123593213373
  C           3.65913211752945      1.31129761150566     -0.08031508223350
  C          -4.64111149590529      0.09959084481570      0.13474316157806
  H           2.70971833225525     -1.73419623853471      0.79329474130464
  H           0.37655931931653     -0.97491635516340      1.24135262128339
  H           0.15786696406898     -1.77871750696932     -0.30517571050621
  H          -0.58115090115646      1.12772611385438      0.31066457393145
  H          -0.69237752216963      0.39588697851008     -1.27651721255074
  H           1.75966978858806     -0.20673769218924     -1.36576020027108
  H          -2.30344874081052     -1.29481122294638     -0.38166711584518
  H          -2.17875007168663     -0.57762636937064      1.21083371978248
  H           1.56678927334388      1.66150466761190      0.30022058312589
  H           2.33855921985625      0.64388048854564      1.49922699857950
  H          -3.08130175508574      1.57733414914620      0.31220340588339
  H          -3.20460281794452      0.86216068505811     -1.28059842952532
  H           4.01072642040652      2.18440615511496      0.47248845533589
  H           4.39880261216575      0.51749457702219      0.02435709458323
  H           3.61236809785071      1.58242249735569     -1.13800317389826
  H          -4.72661036694948     -0.10926290257860      1.20417998181895
  H          -5.42113183688335      0.81703257669434     -0.12750401632652
  H          -4.85047128846173     -0.83026863201713     -0.40008949009878
