24
Coordinates from ORCA-job 445858 E -687.903330340767
  O          -2.52344379922771      1.79414116810111     -0.41166541672169
  O          -3.93300101254262     -0.54557725663329     -0.04273506251220
  O           4.79099623807743      1.24025873875127     -0.22866620722132
  O           4.51938288596980     -0.91452915051059      0.21895990170828
  C           0.23568199921220     -0.57003141229020      0.08295958667741
  C          -1.87290769612617      0.62176364185330     -0.14688723667437
  C          -0.49230662465346      0.61250297144302     -0.11820968963152
  C          -0.48177520350961     -1.75570629175971      0.26899485617404
  C          -2.57527574457156     -0.58664217776745      0.02458914325717
  C          -1.86742295049090     -1.76333796571418      0.24026854350972
  C           1.68673269598339     -0.61569454718026      0.11129167393752
  C           2.54851502027013      0.39293775243411     -0.07740947764858
  C          -3.31680701203415      2.32536317988415      0.65425840637795
  C           4.00424855472105      0.14766884165844     -0.00933562630266
  H          -4.28874136087295     -1.43492878511192      0.06848349057705
  H           4.24780617896468      2.01888340659517     -0.40276621337136
  H           0.00812264966318      1.56011155893885     -0.26450777400052
  H           0.05455868252330     -2.68168773833321      0.43190352348455
  H          -2.40977138315113     -2.69296040893836      0.37461069370065
  H           2.12897574777726     -1.58798156703797      0.30746336736445
  H           2.20292845978909      1.39973509893751     -0.28473939857378
  H          -4.13159278846370      1.65059596480718      0.91830500025892
  H          -2.69335406476270      2.51538893199030      1.53304445697536
  H          -3.72355247254488      3.26507804588276      0.28708645865493
