11
CID 447466; DFT optimized geometry from ORCA OUT; energy -231.204213965331 Eh
O         -2.379009         0.205297        -0.134677
C          1.125793        -0.366629         0.063897
C          2.499963         0.204469         0.012243
C         -0.011204         0.318652        -0.081916
C         -1.311358        -0.350541        -0.012038
H          1.054260        -1.439092         0.236448
H          3.032311         0.009672         0.948124
H          3.084411        -0.272183        -0.780507
H          2.486439         1.279904        -0.163588
H         -0.019832         1.389598        -0.256626
H         -1.259023        -1.446283         0.168036
