98
CID 448437; DFT optimized geometry from ORCA OUT; energy -1708.016025353713 Eh
O         15.115757         0.814809        -0.358791
O        -14.801626         2.172100        -0.911380
C         12.215085         0.418238         1.279875
C         11.292445        -0.310490         0.261277
C         12.940736         1.561953         0.554717
C         13.747409         1.134838        -0.674534
C         12.035605        -0.673004        -1.015509
C        -11.407148         1.631422         0.745737
C         11.393826         0.995702         2.436566
C         13.206320        -0.601521         1.864143
C        -12.622361         2.386568         0.180325
C         13.106685         0.006443        -1.426160
C        -13.668293         1.460314        -0.408229
C        -10.960419         0.512574        -0.210345
C         10.064531         0.470616        -0.115767
C        -13.061016         0.705015        -1.568838
C        -11.699951         0.129965        -1.271531
C        -10.283108         2.664641         0.948831
C        -11.753350         1.015432         2.115031
C         11.465052        -1.817883        -1.797800
C          8.809156         0.036406         0.057624
C         -9.678996        -0.115452         0.127490
C        -11.256182        -0.867879        -2.305918
C          7.595606         0.736319        -0.319694
C         -9.441133        -1.437601         0.175024
C          7.731518         2.080804        -0.974588
C         -8.170029        -2.078003         0.488125
C          6.398964         0.144100        -0.063642
C         -8.280034        -3.453961         1.087984
C         -6.985799        -1.462291         0.239172
C          5.090596         0.645401        -0.351121
C         -5.675153        -1.945366         0.547032
C          3.955021        -0.033749        -0.050338
C          2.609194         0.398078        -0.310569
C         -4.541876        -1.262999         0.243689
C         -3.195389        -1.682076         0.520320
C          2.401095         1.726798        -0.982218
C          1.579403        -0.418726         0.062886
C         -2.167216        -0.863757         0.145001
C         -2.983714        -3.002490         1.207308
C          0.182801        -0.198505        -0.099203
C         -0.770545        -1.079891         0.310965
H         15.130457        -0.053719         0.057574
H        -15.204477         2.657816        -0.183331
H         10.956223        -1.242196         0.730375
H         12.194740         2.296634         0.238523
H         13.614294         2.078473         1.242124
H         13.844357         1.998238        -1.338182
H         12.055061         1.434743         3.187285
H         10.705769         1.769925         2.095988
H         10.801057         0.217182         2.922937
H         13.968753        -0.102324         2.465355
H         12.682342        -1.310479         2.509393
H         13.704752        -1.183542         1.087760
H        -13.059348         3.001228         0.974613
H        -12.298261         3.069125        -0.611300
H         13.600824        -0.277902        -2.350335
H        -13.999866         0.743347         0.353098
H         10.242616         1.428486        -0.591779
H        -13.732625        -0.100201        -1.882756
H        -12.995021         1.386010        -2.426744
H        -10.668367         3.516810         1.513157
H         -9.442877         2.257090         1.510815
H         -9.912152         3.034131        -0.009313
H        -12.030099         1.797188         2.826963
H        -12.582598         0.310860         2.039193
H        -10.898040         0.473526         2.520859
H         11.510884        -2.742717        -1.213589
H         10.410711        -1.643650        -2.028426
H         12.003540        -1.974901        -2.732320
H          8.663411        -0.933837         0.526771
H         -8.874783         0.549459         0.422435
H        -11.782954        -1.820690        -2.189383
H        -11.511172        -0.496225        -3.303159
H        -10.188654        -1.068555        -2.269533
H        -10.277339        -2.111401         0.011165
H          8.264940         2.776557        -0.320967
H          8.312180         2.004072        -1.897927
H          6.770510         2.524589        -1.220048
H          6.429243        -0.830957         0.416649
H         -8.691239        -3.404398         2.101088
H         -8.968977        -4.066603         0.499913
H         -7.327611        -3.976480         1.136059
H         -7.022659        -0.498698        -0.260402
H          5.007921         1.611282        -0.832699
H         -5.589352        -2.899007         1.052326
H          4.056707        -1.001697         0.433921
H         -4.646581        -0.303623        -0.256673
H          2.838478         2.533250        -0.387651
H          2.891057         1.747348        -1.959291
H          1.350037         1.957278        -1.132344
H          1.852020        -1.355556         0.542644
H         -2.441413         0.068251        -0.343075
H         -3.479728        -3.015130         2.181407
H         -3.413017        -3.817646         0.618836
H         -1.932407        -3.225257         1.366904
H         -0.149128         0.717624        -0.575671
H         -0.437753        -1.995362         0.788194
