17
CID 448893; DFT optimized geometry from ORCA OUT; energy -346.98219942764 Eh
O         -1.832915        -0.502640        -1.015317
O         -1.010036        -0.953235         0.989478
C          0.186155         0.689580        -0.308532
C          1.527159         0.223884         0.262502
C         -0.255708         2.032652         0.293449
C          2.070023        -1.034915        -0.407368
C         -0.906616        -0.338228        -0.032997
H         -1.602891         0.035567        -1.783120
H          0.294352         0.811312        -1.393461
H          2.243770         1.042726         0.152820
H          1.399445         0.050343         1.333072
H         -0.366877         1.939986         1.374582
H          0.492634         2.799318         0.087727
H         -1.209305         2.368470        -0.118182
H          3.035580        -1.316246         0.015700
H          1.391573        -1.878710        -0.269458
H          2.210433        -0.883247        -1.481086
