25
CID 449293; DFT optimized geometry from ORCA OUT; energy -443.770185573471 Eh
O          3.021071        -0.171109        -0.182852
N         -1.005328         0.007979        -0.864760
C         -0.584636        -1.153744        -0.063140
C         -0.532791         1.128745        -0.036218
C         -0.977977        -0.794826         1.397999
C         -0.941690         0.754082         1.416684
C          0.929328        -1.311211        -0.233480
C          0.988255         1.210928        -0.206640
C          1.669034        -0.075971         0.269424
C         -2.434900         0.044302        -1.130875
H          3.508700         0.591373         0.147827
H         -1.089918        -2.051926        -0.419343
H         -0.994052         2.058664        -0.370572
H         -1.977119        -1.164600         1.628406
H         -0.297080        -1.241223         2.123307
H         -0.241394         1.150504         2.152698
H         -1.922324         1.165283         1.656270
H          1.290621        -2.194832         0.297829
H          1.151519        -1.441724        -1.294193
H          1.213224         1.353264        -1.265490
H          1.386795         2.069219         0.344895
H          1.664620        -0.089587         1.366741
H         -3.069441         0.047960        -0.230480
H         -2.670154         0.938761        -1.709918
H         -2.710400        -0.824304        -1.731012
