53
CID 45269053; DFT optimized geometry from ORCA OUT; energy -1714.833624118625 Eh
O          4.262827         0.129909        -0.661277
O          2.351168        -1.054157        -0.292496
O          6.676687        -2.933341         0.568473
O          7.745247        -0.312057         0.288183
O          3.857810        -3.068881         1.107003
O          5.297146         2.818622        -1.034816
O         -2.253167        -0.313481        -0.186200
O          0.715956         3.275461         0.896984
O         -4.346085         2.529802         0.705134
O         -1.852084         3.575845         0.970506
O         -4.089979        -1.832980         1.467066
O         -8.205802        -2.248186        -0.854011
C          5.853956        -1.780508         0.652899
C          6.476222        -0.698520        -0.214442
C          4.416729        -2.086500         0.244244
C          5.560833         0.525400        -0.224521
C          3.625128        -0.782548         0.200802
C          6.047115         1.620831        -1.156167
C          1.344556        -0.155751        -0.064856
C          0.059667        -0.660932        -0.229250
C          1.579873         1.170246         0.301482
C         -1.006395         0.193903        -0.009310
C         -0.829248         1.528643         0.380990
C          0.498046         2.007899         0.536185
C         -1.965114         2.389472         0.622539
C         -3.351392         0.459301         0.041144
C         -3.263855         1.752309         0.439587
C         -4.622155        -0.241705        -0.194996
C         -4.964426        -1.400333         0.524535
C         -5.528365         0.229465        -1.146586
C         -6.165756        -2.053836         0.284696
C         -6.734531        -0.408508        -1.390404
C         -7.048073        -1.559858        -0.670691
H          6.205931        -3.659526         0.997311
H          8.258527        -1.118069         0.424831
H          3.643016        -2.661322         1.955409
H          5.545081         3.262581        -0.216754
H         -0.179657         3.697530         1.006832
H         -5.144191         1.986377         0.658383
H         -4.438603        -2.618661         1.903584
H         -8.735853        -1.820634        -1.536661
H          5.846518        -1.407261         1.690024
H          6.566311        -1.080942        -1.239759
H          4.399635        -2.524821        -0.754801
H          5.503328         0.925304         0.799912
H          3.547534        -0.345026         1.211785
H          5.919019         1.284490        -2.186320
H          7.112616         1.785870        -0.974784
H         -0.098974        -1.691079        -0.509680
H          2.576208         1.580667         0.346718
H         -5.267493         1.111270        -1.718009
H         -6.434187        -2.945955         0.837509
H         -7.415826        -0.026668        -2.140872
