69
CID 452707; DFT optimized geometry from ORCA OUT; energy -2397.280997557882 Eh
O         -0.304621        -0.792746        -0.068105
O          3.757245        -1.026154        -0.312314
O          2.142957        -3.441634        -0.383007
O          2.415071         1.243707        -1.405838
O         -0.357904         1.401145        -0.492799
O         -2.025511        -2.796136         0.194063
O          4.578895        -1.268094        -2.405519
O         -1.812744         1.341348        -2.220365
O         -2.542331        -2.263035         2.329629
O          9.573195        -1.006629        -1.679442
O          7.650748        -0.250722         2.627505
O          9.891821        -0.457862         1.019052
O         -5.607778         4.216415        -0.380947
O         -3.642030         1.825110         3.251060
O         -5.789177         3.213930         2.183091
O         -6.822161         0.496586         1.657503
O         -4.586767         0.554639        -2.505346
O         -6.656531         1.294660        -0.907145
C          2.403310        -1.052982        -0.786451
C          1.670722        -2.156732        -0.024099
C          0.178826        -2.101987        -0.346010
C          1.771122         0.314883        -0.559722
C          0.284643         0.198688        -0.870159
C         -0.651913        -3.055821         0.497170
C          4.760596        -1.082291        -1.231290
C         -1.557868         1.669776        -1.081754
C          6.096453        -0.913522        -0.598537
C         -2.768902        -2.173503         1.149016
C         -2.513060         2.316291        -0.165998
C         -3.850142        -1.352639         0.557632
C          6.231172        -0.654887         0.765422
C          7.210469        -1.035616        -1.427577
C         -2.506703         1.928803         1.173298
C         -3.529855         3.112148        -0.695081
C          8.477861        -0.882514        -0.886248
C          7.502425        -0.500049         1.300337
C         -3.751148        -0.919598        -0.764435
C         -4.888288        -0.903144         1.376983
C          8.617474        -0.583399         0.468655
C         -4.593619         3.467548         0.117900
C         -3.591617         2.264180         1.970248
C         -4.652193         2.984634         1.426742
C         -5.827506        -0.036020         0.854738
C         -4.670297        -0.014508        -1.262611
C         -5.731865         0.403155        -0.464023
H          3.089244        -3.483451        -0.202557
H          2.096461         2.127294        -1.189031
H         10.356162        -1.026723        -1.111570
H          8.592776        -0.310434         2.840296
H         10.184771         0.461469         0.954936
H         -6.272343         4.312224         0.316886
H         -4.412232         2.223153         3.680465
H         -6.287924         2.373918         2.212103
H         -7.539414         0.790113         1.077919
H         -3.656086         0.799773        -2.669496
H         -6.370375         1.611841        -1.777579
H          2.412111        -1.282359        -1.852924
H          1.798111        -1.982045         1.052117
H          0.030826        -2.332783        -1.409297
H          1.875811         0.593830         0.495549
H          0.119195         0.001954        -1.934114
H         -0.474684        -2.900216         1.560817
H         -0.425279        -4.086781         0.234949
H          5.369761        -0.572982         1.409269
H          7.087329        -1.251712        -2.478442
H         -1.725769         1.299463         1.570699
H         -3.525226         3.403916        -1.735068
H         -2.928129        -1.243009        -1.381648
H         -4.933834        -1.202400         2.414001
