52
CID 45272262; DFT optimized geometry from ORCA OUT; energy -781.183392060775 Eh
C          1.742563        -0.716432         0.309606
C          2.351268        -1.188540        -1.039484
C          1.376895        -1.878314         1.249179
C          0.279643        -2.813882         0.719389
C          2.650045         0.246745         1.025197
C          3.707367        -1.882974        -0.903457
C          2.436730        -0.027979        -2.031685
C         -1.086082        -2.185109         0.574193
C          2.505744         1.569554         1.142475
C         -1.690383        -2.121936        -0.614926
C         -3.071616        -1.626104        -0.930199
C         -1.698345        -1.685663         1.853299
C         -3.119860        -0.208655        -1.550517
C          1.405063         2.378097         0.582108
C         -2.803145         0.898044        -0.576501
C         -1.110105         2.643811         0.231977
C          0.132115         2.092277         0.872894
C         -1.661877         1.580635        -0.682664
C          1.847341         3.488144        -0.333741
C         -3.853101         1.156601         0.467664
H          0.817305        -0.202821         0.052847
H          1.646797        -1.914179        -1.456054
H          2.268974        -2.471154         1.469208
H          1.060487        -1.458240         2.207393
H          0.583410        -3.246752        -0.235025
H          0.192557        -3.652481         1.420810
H          3.538195        -0.195070         1.469823
H          3.668432        -2.733451        -0.220779
H          4.041510        -2.256357        -1.873817
H          4.471075        -1.192742        -0.538341
H          3.142750         0.729814        -1.686241
H          2.771486        -0.376989        -3.011044
H          1.464861         0.453897        -2.157168
H          3.302687         2.125749         1.632529
H         -1.133048        -2.490446        -1.473477
H         -3.525538        -2.315365        -1.648925
H         -3.708150        -1.654270        -0.044887
H         -1.562571        -2.413516         2.658320
H         -1.216213        -0.760150         2.179582
H         -2.761384        -1.478816         1.757776
H         -2.424894        -0.167165        -2.392405
H         -4.125488        -0.053977        -1.957929
H         -1.837681         2.923662         0.995161
H         -0.889224         3.545122        -0.343369
H         -0.049207         1.284930         1.574933
H         -0.989501         1.307698        -1.491856
H          2.620651         4.090865         0.151395
H          2.293961         3.081286        -1.245571
H          1.033548         4.151584        -0.619905
H         -3.567537         1.931355         1.175482
H         -4.789513         1.464262        -0.008839
H         -4.079149         0.253612         1.039469
