27
CID 454740; DFT optimized geometry from ORCA OUT; energy -1771.006322805484 Eh
S          0.824718         0.918645        -0.013357
S         -3.135053        -0.939087        -0.075570
S          4.634463        -1.186844        -0.426525
O         -6.083785        -0.674452        -1.175351
C         -0.464071        -0.237655         0.154164
C         -1.840313         0.190088         0.198783
C          2.043432        -0.320570         0.046175
C          0.047677        -1.512932         0.222188
C         -4.337790         0.288905         0.128722
C          1.456896        -1.559537         0.161468
C         -2.343086         1.450927         0.419135
C          3.443917         0.016845        -0.029071
C         -3.757583         1.502063         0.373634
C         -5.789164        -0.034114         0.067375
C          4.049868         1.235733         0.171829
C          5.457994         1.195450         0.016056
C          5.918564        -0.049883        -0.301697
H         -6.960373        -1.069495        -1.115753
H         -0.576717        -2.387743         0.336464
H          2.029668        -2.473938         0.225642
H         -1.714634         2.308424         0.613975
H         -4.332581         2.405494         0.523705
H         -6.351472         0.900867         0.174458
H         -6.067555        -0.690311         0.901652
H          3.499029         2.125755         0.441354
H          6.102136         2.053824         0.141187
H          6.935735        -0.363224        -0.469782
