85
CID 457300; DFT optimized geometry from ORCA OUT; energy -1512.0739879269 Eh
O          3.529809         2.032302        -1.188539
O         -7.246563         0.807218         0.441263
O          2.607523        -3.160792        -0.078044
O          2.599746        -2.024934         1.846972
C         -0.711115        -0.230026        -0.616056
C         -1.533053         0.448431         0.519648
C         -3.007382        -0.049292         0.720285
C          0.645979         0.588471        -0.803813
C         -3.715838         0.128004        -0.655129
C         -1.554703        -0.203457        -1.907497
C          1.402775         0.596599         0.521490
C          2.912901         0.445049         0.559217
C         -2.994069        -0.685110        -1.728791
C         -5.269043        -0.004240        -0.679144
C         -0.743205         0.525578         1.833248
C          1.520807         0.002969        -1.958447
C          3.286663        -0.860410        -0.182679
C         -3.686191         0.902473         1.729655
C          2.764090        -0.861747        -1.634964
C         -0.364131        -1.693134        -0.298371
C          0.739633         0.607527         1.674606
C          3.772716         1.683726         0.185647
C         -5.824077         0.954890         0.393978
C         -3.090137        -1.485034         1.280237
C          0.367008         2.064842        -1.183820
C         -5.203988         0.750628         1.767264
C          4.822650        -1.098466        -0.158230
C          5.273530         1.329950         0.356730
C          5.628201         0.136554        -0.528930
C         -5.786548        -1.434684        -0.467393
C         -5.795791         0.484763        -2.041515
C          2.760340        -2.038290         0.651698
C          3.368863         2.854987         1.080641
C          6.214883         2.502281         0.077748
C          2.198875        -4.326171         0.648964
H          3.964433         2.873392        -1.364684
H         -7.589356         1.402096         1.116120
H         -1.673316         1.477426         0.186440
H         -3.539132         1.181568        -0.913549
H         -1.599707         0.814339        -2.297675
H         -1.073021        -0.808548        -2.677950
H          3.164532         0.272719         1.606508
H         -3.016668        -1.749216        -1.487315
H         -3.504891        -0.586610        -2.686850
H         -1.092387         1.380233         2.420905
H         -0.947331        -0.346284         2.464415
H          0.883054        -0.564505        -2.632704
H          1.876606         0.850837        -2.535644
H         -3.280869         0.741548         2.730397
H         -3.442190         1.935285         1.456653
H          2.592103        -1.893842        -1.929814
H          3.572653        -0.497761        -2.267440
H          0.067261        -1.805780         0.693852
H         -1.239112        -2.334003        -0.352238
H          0.353039        -2.077838        -1.021632
H          1.306213         0.584450         2.600243
H         -5.581535         1.975268         0.059858
H         -2.241492        -1.707111         1.924692
H         -3.985161        -1.623009         1.883148
H         -3.113500        -2.243559         0.503185
H         -0.239293         2.578568        -0.440358
H          1.314531         2.589854        -1.261713
H         -0.130690         2.142552        -2.151354
H         -5.496196        -0.229600         2.149087
H         -5.624678         1.486834         2.461281
H          5.111155        -1.407171         0.851232
H          5.056845        -1.931304        -0.825286
H          5.408364         1.032717         1.403294
H          6.693139        -0.090603        -0.429757
H          5.460639         0.409775        -1.573132
H         -5.600368        -1.813552         0.533890
H         -6.862491        -1.464871        -0.633814
H         -5.316519        -2.117487        -1.176544
H         -6.877933         0.602299        -1.997894
H         -5.357307         1.449590        -2.309559
H         -5.569598        -0.222691        -2.839157
H          3.622532         2.654963         2.123453
H          3.881938         3.770065         0.780036
H          2.296417         3.026687         1.018945
H          6.050840         3.342143         0.752627
H          7.251868         2.183314         0.197775
H          6.114201         2.862341        -0.950319
H          2.921988        -4.565291         1.428050
H          1.224037        -4.162511         1.107535
H          2.145321        -5.125423        -0.085389
