42
Coordinates from ORCA-job 46173956 E -811.585714963178
  O          -0.81413482285111     -2.83571760713370      1.06591010736695
  O          -2.78350077240821      2.18552900950638      1.26433257838781
  O           4.24251059483921      0.49609444266472     -1.65909538367779
  C          -1.07931902903218     -0.69028944775163     -0.09695699708316
  C          -0.10388853775727     -1.80513038656091      0.36198450493312
  C          -1.73390724160234      0.05215759192348      1.07042611010603
  C          -2.17462416072152     -1.21086035792893     -1.03182083592751
  C           1.00440611965423     -1.25397507864980      1.29337577701293
  C           0.53299245910229     -2.50407311715164     -0.83377748755237
  C          -2.66407997059048      1.16201621987893      0.61766340805448
  C          -3.22694912292569     -0.18901755381208     -1.32696151086042
  C          -3.45319251640480      0.92116646274844     -0.61147335076472
  C           1.78054455258932     -0.10280769259465      0.73199213902496
  C           3.02904061765259     -0.18525930789485      0.29048787734107
  C          -4.48583764042380      1.94663505421631     -0.96952717066849
  C           3.86022100486682      0.91313682425239     -0.32878101562951
  C           3.10221953913978      2.21640253133221     -0.53143287189447
  C           5.12061395591150      1.14154406214849      0.51163250963233
  H          -1.06059360644167     -2.50468748663311      1.93688786743600
  H           4.75443042416610     -0.31817533911936     -1.58869617588133
  H          -0.48521221366751      0.03615638221585     -0.66124011965855
  H          -2.34613234275357     -0.64647361403306      1.65553894131994
  H          -1.01130689123792      0.50015653927793      1.75036525435812
  H          -1.74459176888643     -1.54511268877221     -1.97806705913894
  H          -2.64025777946279     -2.09888417808196     -0.58693297331251
  H           0.54223815274857     -0.95334696698354      2.23962074579635
  H           1.67294911387507     -2.08598754426975      1.52182284451417
  H           1.26261221089723     -3.23532722211116     -0.48480951931152
  H          -0.21696518987936     -3.03597210316319     -1.41640166489897
  H           1.04187225329718     -1.78607071019007     -1.47679231514988
  H          -3.84301630750854     -0.37612321364597     -2.20250501154221
  H           1.26185385428028      0.84839016659469      0.67777242208789
  H           3.54291999399022     -1.14406398771665      0.35999156882616
  H          -5.20545000697692      2.07375692610278     -0.15808507607667
  H          -4.02154157877257      2.92275262890080     -1.12308144843921
  H          -5.02005831725152      1.66332233576917     -1.87640730960877
  H           2.78336936257144      2.63815926977452      0.42178561842811
  H           3.75232191586733      2.93598711543418     -1.02881928848522
  H           2.22640403951474      2.05696827760964     -1.16008122609843
  H           4.86432354042408      1.50482654584343      1.50830147642170
  H           5.68037660996196      0.20964302776812      0.62898597867693
  H           5.76655250220624      1.87192819023574      0.02221508193558
