54
Coordinates from ORCA-job 46173973 E -1640.806116402245
  O           3.69994631456068     -0.49635654724552     -0.18767324587408
  O           1.93877110027000     -0.16502901011158      1.20532603082630
  O           5.25674452609177      3.22804038411769      0.42491479662787
  O           6.23482097532112      1.62024752120381     -1.70272150172323
  O           2.59931983222278      2.70024767740782      1.20718208202304
  O          -2.67156705365062     -1.02470715410460     -0.04532078928398
  O           4.58678682099763     -2.36708177356294     -1.88897182011020
  O           2.47733281302756     -2.83616491022870      0.71979409422660
  O          -0.00292750150633      1.80452151017607      1.19772992039025
  O           0.56947496338820     -4.47137080043029     -0.10415042848603
  O          -8.41678935726461      1.41539968179418     -0.91967758988810
  C           4.46623971779209      2.19214217177616     -0.14307283489257
  C           5.41082164142028      1.12098016606913     -0.66102688277292
  C           3.46316707344576      1.63996279835600      0.86503052492658
  C           4.59360898123298     -0.04558282610319     -1.20454201730895
  C           2.75410839869130      0.45090181204651      0.23133928623928
  C           5.42080212143162     -1.26825931972044     -1.56550313593840
  C           0.94576143277254     -0.98764307607785      0.74944230281462
  C          -0.37156889867294     -0.48140184411187      0.56862741113686
  C          -3.12699971728312      0.15546462644963      0.64555890458046
  C          -2.15524076253409      1.28935258075669      0.37155584670241
  C          -1.37663702633944     -1.37893555967203      0.14988584750955
  C          -0.73685679059479      0.92877260311935      0.76999435599857
  C           1.23064389729563     -2.32731883349409      0.52398511405155
  C          -4.53318273138714      0.44738426888190      0.21026515020334
  C          -1.08805952606753     -2.71519507276332     -0.09732164739623
  C           0.19923845856833     -3.17454375792095      0.08775933869145
  C          -5.50838313880996      0.77142249468664      1.15043588908626
  C          -4.88194590377396      0.44645718409278     -1.13827266789960
  C          -6.79931694445643      1.09900098872414      0.76432961132425
  C          -6.17199373997163      0.76131254422787     -1.53821727529063
  C          -7.13451575669169      1.09393542597443     -0.58625427594643
  H           4.64899178562855      3.87209692372304      0.80983522713173
  H           6.60214079767456      2.45838109394554     -1.39504616693994
  H           1.71827514594774      2.34618502525909      1.42320799652680
  H           3.95730216035309     -2.45396009098792     -1.15821655613474
  H           2.42227048835809     -3.79771567877137      0.63190016625570
  H          -0.18251427826964     -5.00202695620926     -0.38998937937945
  H          -8.52505534578706      1.37652836130424     -1.87675107339573
  H           3.89816640351362      2.58956418861419     -0.99609087043975
  H           6.02488351581998      0.76090116161872      0.17508643839828
  H           3.99692195500581      1.26466790395777      1.74792038059449
  H           4.02167313102438      0.28488993345020     -2.08237988140685
  H           2.13403554991535      0.77375387494273     -0.61872361983939
  H           6.07878982458505     -1.50987676008942     -0.72047591501887
  H           6.04049209465638     -1.05230582595143     -2.43437923210993
  H          -3.12003115812584     -0.07219726458979      1.71847682781622
  H          -2.16034260602369      1.51940549805238     -0.69950433992135
  H          -2.44526415311554      2.19264363633643      0.90595346019313
  H          -1.88625315996241     -3.37734874707141     -0.40728144283896
  H          -5.25731264738022      0.76800415438143      2.20463627184370
  H          -4.14351223179665      0.18056854849231     -1.88337721755476
  H          -7.55661124092866      1.35084765989608      1.49427172437144
  H          -6.43308625061889      0.74851140538302     -2.59077719269971
