34
Coordinates from ORCA-job 46187187 E -727.971543960540
  O          -3.02322037249460      3.06561087753095     -0.13819102788993
  O           3.50111098953164      0.23368064998223      2.14900817865329
  N          -2.18012934477802     -1.71079979687491     -0.18553003232544
  N           1.77641463306462      0.01519228691670      0.68150577880522
  C          -0.26814591296017     -0.23446136466397     -0.65324007757086
  C          -2.53737170896932      0.72777834704112     -0.13938537049584
  C          -1.02852454258092      0.94589721159686     -0.03322440427955
  C          -0.74476521879491     -1.55349840559282     -0.02913731541850
  C          -2.91841230733830     -0.62836706416356      0.44877098787685
  C           1.22320675078238     -0.08087705302029     -0.56055291840558
  C          -3.31808213825814      1.84422438386001      0.53369594913809
  C          -2.62944106667682     -3.01202457799823      0.27375056080691
  C           2.04948637551529     -0.03760127977338     -1.64429135190615
  C           3.14222539573417      0.15895364569646      0.98181536395369
  C           3.44641242209711      0.10728102562347     -1.44016361010920
  C           3.98115434313047      0.20167819965773     -0.19299982874430
  H          -3.45894634668751      3.78943462333592      0.32224543500009
  H           1.18250259622973     -0.01044475477148      1.49810556904052
  H          -0.51541166650188     -0.27686520462062     -1.71593610163629
  H          -2.81448801209554      0.72201214007969     -1.19849568645279
  H          -0.76342257314294      1.04584972960240      1.02636963219553
  H          -0.74495257029132      1.87895023609233     -0.51929122831054
  H          -0.45513901765447     -1.58731215699945      1.03948045645214
  H          -0.24605090472740     -2.39212924346129     -0.51879250453084
  H          -3.98492632737390     -0.81258488582565      0.30041172716123
  H          -2.74216529518404     -0.61707262717027      1.54322471887700
  H          -3.03713628047693      1.90683100407849      1.59359830721229
  H          -4.39235501001577      1.62495656368145      0.48252739889231
  H          -2.46129258294346     -3.16561228450542      1.35425648224350
  H          -3.69690380489990     -3.12321954567899      0.07772106933723
  H          -2.09914788376895     -3.79756458630718     -0.26650285012160
  H           1.63405463251742     -0.11129711422998     -2.63794230707078
  H           4.09944136578124      0.14363568454256     -2.30437590353094
  H           5.04277638423116      0.31328733633913     -0.02657109684679
