93
Coordinates from ORCA-job 46184561 E -1853.272487644812
  O          -1.03380355620413     -3.88379400166197     -0.94350993941666
  O          -3.21440375110676     -3.30094197129062      0.70173754746204
  O          -1.83020929218052      2.27585560566513      1.18840673715798
  O          -7.62823477064018      1.96904987241962     -1.58154611288114
  O           5.07804551018901     -1.75741924414094      1.92830464959410
  O           6.38224430567888      1.39348345178457     -0.16126682651302
  O           6.16111599751601      0.14785539007079     -2.02047914210395
  C          -1.05431358678535     -1.43762265803038     -0.34052493878896
  C           0.03215434358618     -0.61399444014110      0.41885694974600
  C           1.34800758764277     -1.21705999938024     -0.14642450242393
  C          -0.52267590274526     -2.87475370380358     -0.09140455256258
  C          -2.46389143812116     -1.04300433235939      0.08484551623570
  C          -4.20361670802003      0.76985252556073      0.54496819227826
  C           0.99570123431450     -2.72436471638588     -0.29628991301245
  C          -2.76377283879078      0.24606201823514      0.37419218588548
  C          -0.24338019144274      0.86105544800296      0.15651125580252
  C          -5.15054702267856     -0.22565946485642     -0.18680535548380
  C          -3.54089456661972     -2.10759296569003     -0.03067529053774
  C           2.65289763403726     -0.98322115154822      0.63125230690914
  C          -4.92706380116736     -1.62821369697430      0.35426346054716
  C          -1.04585238013188     -1.20662380828087     -1.87636760096094
  C          -0.03839337494800     -0.85227049774252      1.94375278100499
  C          -1.64595944315032      1.22171740658331      0.60699888642073
  C          -6.65520744139941      0.15699522946845     -0.33489705038253
  C          -4.36756240012439      2.12893373920129     -0.17400926145440
  C          -4.46998849532955      0.93539224496774      2.05589575273110
  C          -5.81878323102990      2.61354233296897     -0.18591431862677
  C          -6.78016608587775      1.62072593587450     -0.79125576227067
  C           3.81656190869467     -1.65218586122517     -0.10587390431934
  C           2.98356567265440      0.49707113985185      0.84223604272433
  C          -7.47612957836514      0.01565698280013      0.96457609135010
  C          -7.30177998889480     -0.73919784165894     -1.40112458240988
  C           5.07483277202842     -1.82432331745673      0.71931826519111
  C           6.36502632663974     -2.08452115945824     -0.04162199895167
  C           7.24173702578627     -0.81615742255850     -0.08801313051388
  C           8.60120248110681     -1.11016089001381     -0.73034923056919
  C           6.53939324405304      0.27265339728220     -0.88057238366931
  C           5.70450295527995      2.49294673224447     -0.81223512013493
  C           5.40175076265211      3.54057086063618      0.23585433574842
  C           4.64765885302864      4.73321179530051     -0.35029786574629
  C           4.32574207427994      5.79564376498316      0.69707832725900
  H          -1.85997478227512     -4.17901319283790     -0.53814993299853
  H          -3.22955038070455     -3.09624175115417      1.64401366157418
  H           1.49995722904194     -0.78760187616276     -1.14074896488897
  H          -0.72745037180525     -3.15445983904614      0.93984993940385
  H           1.25443496333901     -3.10829169953276     -1.28268813264619
  H           1.53453477811554     -3.33260105987895      0.43163228164188
  H           0.43370965953325      1.52673761607300      0.68508339089439
  H          -0.15374237242643      1.08648354853171     -0.90942505320632
  H          -4.77911560976269     -0.23077331725730     -1.22010267439171
  H          -3.55886361388581     -2.44333006294909     -1.07144292089671
  H           2.57481120731399     -1.45896245521252      1.61126662533173
  H          -5.01938239938812     -1.63669337466156      1.44290537608958
  H          -5.65423033379049     -2.34382504008977     -0.02467199022881
  H          -1.28810152153325     -0.17706803624273     -2.13041329800621
  H          -0.09076293775761     -1.46498965141926     -2.32763409186743
  H          -1.78965631900143     -1.85221136543385     -2.33949660900273
  H           0.60687127761023     -0.14334368164245      2.46163207206520
  H          -1.04776435750969     -0.71098080422873      2.32872422877077
  H           0.28975378980708     -1.85021905937624      2.22632833612407
  H          -3.74456665892414      2.88398659256563      0.29354567860382
  H          -4.01942672922179      2.01984927022441     -1.20664644393640
  H          -4.48979034830813     -0.02481999379995      2.57080881310704
  H          -3.67617706511838      1.53597260167026      2.49357614830723
  H          -5.41167698908950      1.43856876711508      2.25957230235684
  H          -6.14915373507939      2.81643594584526      0.83774199955193
  H          -5.91540153270725      3.54803109686206     -0.73807238473652
  H           3.55311530418649     -2.66323820614002     -0.43877538502266
  H           4.06569332242250     -1.10922005624553     -1.02314976732161
  H           2.28720743372113      0.98155446945191      1.52382860489527
  H           3.98013435508170      0.60919606806752      1.26789008937360
  H           2.95477499686539      1.03819317134470     -0.10741443776808
  H          -7.17403586878710      0.71154102582620      1.74275903976684
  H          -8.53003094820348      0.19309279286396      0.74688553996938
  H          -7.38272600637906     -0.99513462143929      1.36418970652312
  H          -7.37057337045623     -1.77180614593597     -1.05975906708424
  H          -8.30589410039853     -0.38566486595079     -1.62445804325296
  H          -6.73114019371265     -0.72027162229171     -2.33138795705118
  H           6.91760342908018     -2.86105495041455      0.48941871159970
  H           6.16375907225217     -2.41935799676767     -1.06031183391984
  H           7.38370747041967     -0.45855436509841      0.93169254156680
  H           9.11972395283474     -1.88862805166620     -0.16905215715008
  H           8.47276970541666     -1.44741874524571     -1.75945386412133
  H           9.23118587169669     -0.21896472686673     -0.73789963626922
  H           6.35078551047831      2.87897997064647     -1.60344364677866
  H           4.79614498353908      2.11414375944946     -1.28150575994028
  H           4.80881336685344      3.08336167666514      1.03277209204335
  H           6.33704242142466      3.87736275962933      0.69238106084763
  H           5.23985158385784      5.17974808439825     -1.15576010883279
  H           3.71887931352843      4.38247420357560     -0.81199513674464
  H           3.70580045144390      5.38287709439127      1.49639957200635
  H           5.23832698602155      6.18618329348845      1.15373580047039
  H           3.78624326692560      6.63606707705919      0.25712218486506
