37
Coordinates from ORCA-job 46184319 E -1219.623423661757
  O           0.72217540987869      3.35483572026476      0.05761543726054
  O           3.00901629194452      3.18161549422963      0.21540615596650
  O          -3.93033985724465     -1.41869429549215     -0.55076340723503
  O           0.25241449117835     -3.96255688610527     -0.13632091489691
  O           4.14475618716711     -1.96790451676405      0.47226095914618
  O           1.35528468355494     -2.95792854094162      1.50279970919990
  O           2.77581880478693     -2.39746907351864     -1.21767572012058
  C           0.24340665116660      0.90504789922404     -0.01262830338947
  C           0.91514458894992     -0.36287173244167      0.02119734615041
  C          -1.19882168654048      0.97673152808770     -0.16834466765311
  C           1.07458069139491      2.02653184382447      0.08700463366984
  C          -1.92144732603404     -0.23649904195332     -0.26817125380215
  C           0.10235660786061     -1.55233797282835      0.05369975147662
  C           2.33017592679450     -0.42625483247310      0.03315725078064
  C           2.44505594845529      1.93347892463468      0.18027625644105
  C          -1.24493734418953     -1.47871681831358     -0.11591831968335
  C           3.10616200532064      0.72471390720696      0.13416317357708
  C          -1.90665154682255      2.19384053141544     -0.24364363213445
  C          -3.32838505754398     -0.20546688827791     -0.45707757174191
  C           1.91511126994528      4.08661296696116      0.36346279602542
  C          -3.27099854479057      2.19199267469795     -0.42293603636071
  C          -3.99653193917376      1.00041312251723     -0.53399922544374
  C           0.65836171142315     -2.86123447230796      0.52797778817462
  C           3.06011259237757     -1.69518886557658     -0.28513265420864
  C          -5.33959476717331     -1.46629200644690     -0.70993092475774
  H          -0.13546335503988     -3.70585397444686     -0.98384074904487
  H           4.10607751648596     -1.45843769440247      1.29281027991022
  H          -1.84686941820863     -2.37411818289943     -0.05709842573494
  H           4.18618688795754      0.68392805234090      0.10837917276520
  H          -1.38277274568689      3.13020875891892     -0.16889948734817
  H           2.02314401417912      4.91201034549332     -0.33839811688600
  H           1.86618958761932      4.43959801591313      1.39970662340920
  H          -3.80061371092920      3.13415132358688     -0.48366941119755
  H          -5.06560794773961      1.03751542110291     -0.67780505959238
  H          -5.60024077403203     -2.52098356688676     -0.74667129288012
  H          -5.84905563655379     -0.99341182396127      0.13421450062145
  H          -5.64910621073800     -0.98149634438219     -1.63997166046302
