52
Coordinates from ORCA-job 46190394 E -855.482768165848
  O          -4.12769114630775      1.93870694050234     -1.40491859543058
  O          -4.69345228689394     -0.11867747175971     -2.00192655340212
  C           0.96399102349695      2.03030489744631     -0.85081763027918
  C           0.98881975403862      2.46812471866690      0.61229174447616
  C           2.18780859540823      2.46283930791707     -1.66114862195829
  C          -0.27752158816244      2.08534625907823      1.37195740760338
  C           3.52361132421435      1.89774005483747     -1.14610927505721
  C          -0.26099493146046      2.48072159334723      2.84585268986665
  C          -1.24336814279122     -1.80326699462052      0.08331292299895
  C          -0.99685932141873     -3.30846262332064      0.04477343341827
  C          -2.49320818077821     -1.38203208701267     -0.68428021498895
  C           0.29224327680167     -3.73364970141787      0.76457440989298
  C           3.55626216658467      0.40037039019256     -1.13445529386372
  C          -2.71749342532361      0.12260012317919     -0.63475903884409
  C          -1.53654225726233      2.07935982504274      3.58211153922571
  C           1.52813051179103     -3.20754918622804      0.10116432460846
  C           3.64249765963105     -1.85943582508286     -0.03669458589192
  C           3.65877329721365     -0.35602493435435     -0.04798812270374
  C           2.42557609273470     -2.40411615008987      0.65958722541727
  C          -3.93113484227060      0.58973593021426     -1.41127900873792
  H          -3.43411265182625      2.37541297415194     -0.89338670712272
  H           0.87013514900234      0.94089951079152     -0.89320585545092
  H           0.06748928571441      2.43851786794668     -1.33089186448795
  H           1.84829986976258      2.01739982491825      1.11616393913253
  H           1.13555907411985      3.55311856820719      0.66752326181102
  H           2.05126985381491      2.15304997663069     -2.70207012690878
  H           2.25081231451282      3.55568044872308     -1.67096534390747
  H          -1.14523540289969      2.55075659932496      0.88730247463771
  H          -0.42890186155601      1.00394653833869      1.29263226106458
  H           4.32428943519562      2.27665889518114     -1.79024083911128
  H           3.72944850398972      2.27648744729674     -0.14231046942650
  H           0.60388036314525      2.01611174666069      3.33070712730310
  H          -0.11189341050984      3.56223567179552      2.92964019456660
  H          -1.32607372210970     -1.48062535360713      1.12820441871071
  H          -0.37027064708210     -1.28364862427645     -0.32294410026060
  H          -1.84739043469963     -3.82893319009546      0.49531368854490
  H          -0.95155076253107     -3.64130219600861     -0.99803686343817
  H          -2.41330294896173     -1.69662269440911     -1.72769837953871
  H          -3.37408155544006     -1.89022021704146     -0.28460808895703
  H           0.26123435479722     -3.39838246316692      1.80585268982237
  H           0.33138084284111     -4.82827737224331      0.78737119133655
  H           3.45877529135998     -0.08802064133557     -2.10322333803733
  H          -2.83055119758126      0.45948674051836      0.40159577665084
  H          -1.84092283007284      0.65187818233046     -1.02307750832746
  H          -1.50119174788635      2.36707485733046      4.63443337906045
  H          -2.41421169825644      2.55660127827085      3.13798422305074
  H          -1.69108750360513      0.99807893452381      3.53827275840338
  H           1.67254022308932     -3.50886827956476     -0.93573380459056
  H           3.68298842031398     -2.24013170306601     -1.05988636700021
  H           4.54253970653432     -2.22208408275859      0.47657439946527
  H           3.74012487745057      0.12780571976864      0.92369073403491
  H           2.28231223012842     -2.08899403167408      1.69156738261987
