24
Coordinates from ORCA-job 46224610 E -642.359723363217
  O           1.36693160083493     -0.40311007953261      0.33557787726538
  O          -3.10971698183026      0.81164109461875     -1.07385557682960
  O          -2.94761406229879      1.31762733380524      1.09673247692203
  N          -2.56900636842498     -1.72230843255478     -0.77995507924945
  N           2.28910124037429      0.01162014577208     -0.67205272467875
  N           4.53766005755011      0.38786261851384     -0.99633839973539
  N           3.75171285994875      0.12535550585269      1.18852544893837
  C          -2.35078844166617     -0.92088479410355      0.43421130572029
  C          -0.87749115615170     -0.90151589041151      0.85699005939504
  C           0.05754781820651     -0.33693493969851     -0.20038038146535
  C          -2.83901090246670      0.52182187576230      0.20413801322743
  C           3.45513613566811      0.16309284804238     -0.15227000144052
  H          -3.43047125815413     -2.25083095676929     -0.73293560059761
  H          -2.94699984610850     -0.02489993074608     -1.56719270186491
  H          -1.81155757434018     -2.37044865985739     -0.95099769433620
  H           5.10631723187676      1.17606332833035     -0.71509192173130
  H           4.24416199228991      0.46440537929261     -1.96038135152936
  H           4.65165838345043     -0.26312129431834      1.42152596529222
  H           2.98959392120192     -0.19357044187205      1.76579513896962
  H          -2.93144350543512     -1.29871974959780      1.27930723872003
  H          -0.79635892479046     -0.30140016283594      1.76382458837933
  H          -0.56868475764521     -1.92032455996786      1.10769259024103
  H          -0.19770057805833      0.70112015053262     -0.43825660894783
  H           0.02091911596881     -0.91102538825713     -1.13197266066451
