51
Coordinates from ORCA-job 46845277 E -1303.020196984205
  O          -1.74186044508777      0.71712958904610     -1.21221337476856
  O           1.51740265424541     -2.83140048714912      0.25075195020299
  O           3.17548584215910      2.38859123801429     -0.09889330745254
  O          -0.54813609168487      2.38683611644892     -1.98852499230463
  O           3.97910607078282     -1.37496562508858     -1.37106109774378
  O           2.10182637278573     -0.17010685517809     -1.62015474225695
  O          -5.19981585231559     -2.05297721681296     -0.84975868757976
  C          -0.48049466122995      0.94021150556359      1.39825497427124
  C           0.67299326690310     -0.03865133603548      1.06918676839361
  C           2.05680614902864      0.63638885745803      1.06774043927065
  C          -0.43765692829903      2.10529837994147      0.38888910545073
  C           0.72828048490921     -1.27666466430728      1.97171078589446
  C          -1.85058536078500      0.27657587092510      1.21165821376679
  C           3.14381098976462     -0.32106010861671      0.56916318879949
  C           0.89572107630337      2.85514010069041      0.37013441761819
  C           2.13172578017191      1.98293787752817      0.35526385386694
  C           1.80963986511553     -2.26722315150301      1.53377163651387
  C           3.17356692742727     -1.59995400206456      1.42024863119782
  C          -0.39889238024961      1.48136618939204      2.83112757006330
  C          -2.05518255199552     -0.26495709138837     -0.19326665950731
  C          -0.86761962659900      1.73492736805665     -1.03445899849836
  C           2.98094637019244     -0.60152579725597     -0.91775624949347
  C          -3.45144049137707     -0.72548309834986     -0.43438185826827
  C          -4.65383309104960      0.05940245951106     -0.38300032329320
  C          -3.84726145948408     -1.99058284471410     -0.72475763601585
  C          -5.67382300588851     -0.79135260042405     -0.64329185033833
  C           3.91211667817705     -1.72201222287046     -2.76275307322709
  H           0.65160330377933     -3.25198912555307      0.28279393062746
  H           0.51632991950084     -0.38636201478270      0.04933350252542
  H           2.31040692624661      0.88275201578903      2.10899598041936
  H          -1.21086622693349      2.82139287431241      0.69452776807785
  H           0.93255849023066     -0.98418561082366      3.00630775651739
  H          -0.23469129424663     -1.79538003673465      1.98323551498195
  H          -1.99939890657148     -0.54246637979299      1.91657567002700
  H          -2.62914923075257      1.01324540099313      1.42893829502385
  H           4.11197391223628      0.17399380297911      0.66034159478126
  H           0.94728327315835      3.53004617189220     -0.48085888243904
  H           0.97527996189568      3.46831433822968      1.27371677331495
  H           1.87402392406529     -3.07232647597619      2.27629059009918
  H           3.89092107742556     -2.30992485929703      1.01057212569904
  H           3.50963174801425     -1.33593917614122      2.42647991984325
  H          -0.54477798409704      0.68292282385911      3.55966733064248
  H           0.55771760245468      1.95609268299818      3.04788058418434
  H          -1.18086441066102      2.22496876519245      2.99941524321944
  H          -1.37996005384672     -1.10653359230103     -0.36683059741261
  H          -4.73269534235771      1.11784615591163     -0.20127510631505
  H          -3.31142021649986     -2.91142646399981     -0.87613194594542
  H          -6.73941945308523     -0.66936523803811     -0.72229502537137
  H           4.79040249899688     -2.33219094850490     -2.95459211352880
  H           3.00104689404147     -2.28428694340114     -2.96460413301054
  H           3.92325800508525     -0.82400061762765     -3.37900946052342
