48
Coordinates from ORCA-job 46881044 E -1189.414150809642
  O          -2.70404002133630     -2.20871311895868      1.70094678317402
  O          -0.85596003095544     -2.42443862697886     -0.15360465533923
  O          -2.59602481036170      4.17139053326576     -0.67371677232238
  O           6.00521990832133     -0.82959567392840     -0.95590554734568
  O           5.36766880944400     -2.98327317658719      0.40298809622655
  C          -4.71917936009244      1.69444157735564     -0.58594723212201
  C          -3.80017663710060      0.49895203852638     -0.57873050599978
  C          -4.25131961217271      2.81249871538010      0.38439536095734
  C          -3.78077452821474     -0.36747215935724      0.52031723865659
  C          -2.85605740484164      0.32098001104698     -1.57808604180952
  C          -2.80854100734506     -1.35094346540102      0.65078180948029
  C          -2.82267572017903      3.24030627314551      0.08044621250707
  C          -1.87764433404615     -0.66264972156545     -1.46085451190603
  C          -1.82675008105461     -1.48300406888988     -0.34832927820466
  C          -1.76548058231276      2.39319577623856      0.65641729266471
  C           2.53686602174919      0.05590069887980      0.02119188372262
  C          -0.52548006504128      2.33489505577330      0.13725297626444
  C           3.81278840989030      0.15202660482699     -0.56306329017369
  C           1.59535495075334      1.14811002718966     -0.16377613435046
  C           4.75531407830435     -0.85595528699298     -0.42968062999645
  C           2.22170892584797     -1.10448836877076      0.73377760404625
  C           0.42449437776327      1.31992350864079      0.48144194460626
  C           4.42059852761494     -2.01277216205567      0.29977621384380
  C           3.15677932482342     -2.12050962123613      0.86488241857986
  C          -3.66829976207365     -2.11729158227270      2.73346678924754
  C           6.39413561243200      0.31423573473736     -1.69647558062009
  H          -0.19337418832509     -2.34145592969042     -0.84946255547704
  H           5.01791289127935     -3.71257702197859      0.92771670311839
  H          -4.76747596128033      2.11210502364858     -1.59300016998673
  H          -5.73548358781144      1.40456157102463     -0.30707637811754
  H          -4.90126867554043      3.68098392398082      0.27533621496225
  H          -4.31970349301373      2.44813654664791      1.41264441562172
  H          -4.51823990492715     -0.23822723708374      1.30049904823040
  H          -2.84252018781200      0.98698733115252     -2.43114374403467
  H          -1.12188859052268     -0.77170913800213     -2.23089318974763
  H          -2.05934463876541      1.67350487978747      1.41015889523859
  H          -0.26891020270336      3.03271545998053     -0.65479803855371
  H           4.05726254127298      1.04460760701061     -1.12094840996461
  H           1.86913113449003      1.88286010104326     -0.91655066159960
  H           1.23970537380471     -1.23769932756102      1.16477195662366
  H           0.12773398251970      0.62086527656158      1.25631870772528
  H           2.90002122351703     -3.02129852460623      1.41227879990653
  H          -3.63643584060153     -1.14022214013901      3.22621593453615
  H          -4.67899160055396     -2.29479712518015      2.35328794342641
  H          -3.41137630905177     -2.89166112406179      3.45241550642337
  H           6.36407626908355      1.21762246177780     -1.07975025240819
  H           7.41646895683754      0.12853618306411     -2.01640071268946
  H           5.75806281828804      0.45565668061138     -2.57567645702097
