41
Coordinates from ORCA-job 46901319 E -885.620501941596
  O           4.38322652236154      0.87420467128189     -0.07824020729319
  O           2.08613718744879     -0.96324436422846     -1.19296452928866
  O          -2.46252473434216      1.21452373446437     -1.28483190319925
  O          -3.35975764420261      1.40407428056499      1.18031547581985
  C           3.22693480489870      0.93252460919858      0.75763304079060
  C           2.68779309320949     -0.45996165906493      1.08747723523746
  C           2.22514381872304      1.85742279129141      0.07665542466928
  C           1.52901281154242     -2.64456558466356      0.39681554462192
  C           2.11303062208139     -1.30274050802111     -0.03408244966638
  C           0.92057419332994      2.03387681171233      0.85165495586678
  C           0.12807368979828     -2.86301872905172     -0.19769081401826
  C          -0.83608884674537     -1.76667987731278      0.18697096718065
  C           0.01970217160070      3.10177537551397      0.23805368027662
  C          -1.21140130850220     -0.80395280051507     -0.75433513159657
  C          -1.32708022350122     -1.65561295253553      1.48122761881755
  C          -2.06057413790010      0.24533893204659     -0.42479182031515
  C          -2.17245443769375     -0.60363990040940      1.82669249269380
  C          -2.54419920416073      0.34783350704938      0.89090503780716
  C          -1.95693769875686      1.17985453534471     -2.60882183755461
  H           5.07490192133543      0.38556603500725      0.38045606484143
  H          -3.62244287364400      1.35234528886483      2.10604867679818
  H           3.50149064746036      1.39063625667188      1.71984586997802
  H           3.47507563812510     -1.05886797228810      1.56548110289633
  H           1.90518806827528     -0.38064378494360      1.84991204278331
  H           2.71559180811051      2.82724558676452     -0.04622968086357
  H           2.01972922971678      1.47282488747521     -0.92247806026970
  H           2.20823705012490     -3.42699122659762      0.04235825425404
  H           1.49632027943081     -2.71163746714022      1.48572029309752
  H           0.37589578322065      1.08761289313282      0.88355023101168
  H           1.14101918334371      2.29891325449018      1.89257998335686
  H           0.21461668358015     -2.90783352949905     -1.28309208741947
  H          -0.24663377947635     -3.83270453370323      0.13907546954042
  H          -0.93784192631063      3.16542669368940      0.75649100743281
  H           0.49618348575250      4.08465016268641      0.27397544661866
  H          -0.19362019335289      2.87618148343541     -0.80832334519553
  H          -0.80747725287047     -0.87514010765751     -1.75296167210186
  H          -1.05883748615972     -2.38941520877501      2.23167290830785
  H          -2.55170782681545     -0.52212227743634      2.84001941964151
  H          -0.86495649590169      1.24237444612716     -2.62042240687583
  H          -2.27032670125410      0.27107637724624     -3.13138147997107
  H          -2.37606192188021      2.04892786978369     -3.11001381871119
