70
Coordinates from ORCA-job 46928317 E -2211.053843376481
  O          -4.61226435554546      0.86190495778499      0.70558131982083
  O          -3.15485498973386     -0.78740825422077      1.25047781910963
  O          -7.19710227912418     -1.68285639890459     -1.20566169977597
  O          -7.45071286126485      1.12979082517526     -1.55552908819077
  O          -4.52757296829205     -2.53699636435133     -0.62153077383898
  O           2.87643398286062      1.84351953844950     -0.72537363752668
  O           1.11445564527864      1.33999920208605      0.72370153865744
  O          -0.26076370451144      3.54640841976489     -0.14608304229379
  O           1.61077040676212      5.49971912907857      0.72854269854472
  O          -4.70117291351522      3.58033054647687      0.62072582109672
  O           3.89755132630527      4.61946488101449     -0.57744217540098
  O           2.25868096380122     -1.12231591531408      0.24664483271428
  O          -1.61805423912366      1.48116279598999      1.07393420256850
  O          -2.01950823332950     -3.20945107257779      0.79355856356821
  O           0.10152215139808     -4.57454970668958      0.33693547347236
  O           8.34357476002067     -1.80400161721397     -1.11014945249562
  C          -6.09025000311347     -0.80840980050285     -1.02554857124794
  C          -6.63394288832264      0.53481933997651     -0.55968942832729
  C          -5.07566678952156     -1.36865267298536     -0.04166907391273
  C          -5.46672400767192      1.47160875296357     -0.26481286199795
  C          -4.00949578627373     -0.31350868101843      0.23417496723459
  C           1.14103713492104      3.45706644869756     -0.37135776046275
  C           1.93303398337919      4.10272211591744      0.75225042742488
  C          -5.85720443551621      2.81086353030470      0.32826425092881
  C           1.50912471227103      1.97890034785980     -0.49066941264128
  C           3.43290682358095      3.87832949827635      0.53657635335385
  C           3.70715718833530      2.40211636951804      0.29700448153410
  C          -1.82011229546875     -0.86125885373512      0.95987379364239
  C           0.35444598945474      0.19419529065154      0.65583334171924
  C          -1.02445338687021      0.29568830525115      0.89502750522589
  C          -1.24676530511670     -2.11109391587982      0.76632923238098
  C           0.91731381188635     -1.06204590897196      0.47184660721145
  C           0.13993543016757     -2.22335896221087      0.52197659138178
  C           0.76191277317158     -3.51617965108292      0.31023633616404
  C           2.86759744964246     -2.31614250600702      0.02887548436158
  C           2.17792766924076     -3.48242750759670      0.05146045238290
  C           4.29542222680269     -2.16567764993345     -0.24865386051799
  C           5.19010060570958     -3.22186057674193     -0.03425777849696
  C           4.79148227365531     -0.96143199176737     -0.75875500862452
  C           6.53408502562260     -3.08703064994029     -0.32317845680436
  C           6.13680598260006     -0.82215730301534     -1.05639017065738
  C           7.01399609328639     -1.88350503484540     -0.84023717927730
  H          -6.84325549873362     -2.55220002694762     -1.43093944212585
  H          -8.07306386428120      0.45417088550043     -1.85250956374379
  H          -3.83672114422990     -2.89160645269647     -0.03735383217831
  H          -0.48818143804156      4.47450672560462     -0.00719355800039
  H           1.71059687537138      5.86771893698467      1.61312344802476
  H          -4.09193495027519      2.98780253058507      1.08322776443309
  H           3.49605674907145      5.49720663324881     -0.52478198021731
  H          -1.02606651098312      2.21330152448747      0.79752863265792
  H          -1.39963025309791     -3.98183587315802      0.62684068724191
  H           8.55603285009444     -0.93284215742178     -1.46508107179302
  H          -5.58195647712701     -0.65446376632778     -1.98790124798591
  H          -7.20581208842386      0.38039866202197      0.36480943466502
  H          -5.57070208573521     -1.59152989629738      0.91148838501928
  H          -4.90161343642070      1.64610216978473     -1.19103416432260
  H          -3.42718452418601     -0.11199889268821     -0.67573642990025
  H           1.40106737195910      3.94010624520510     -1.31663629823253
  H           1.62468174484417      3.65561460543287      1.70071613546013
  H          -6.45640639456986      2.64065040014260      1.23225739446790
  H          -6.45809079034838      3.37106402334641     -0.38620750367387
  H           0.99630167096324      1.51329753222307     -1.33294505459883
  H           3.97443979609896      4.17755091731611      1.44651667033466
  H           3.57365194958644      1.84299329340561      1.22668754478885
  H           4.72984172898496      2.27225221594665     -0.05074660910449
  H           2.67754294610442     -4.41474779983672     -0.16135463996741
  H           4.83396929423753     -4.15328306122010      0.38445714062707
  H           4.11388747608340     -0.13901244764594     -0.93827659856676
  H           7.22802597057295     -3.89783921087357     -0.14858327068184
  H           6.50632606464228      0.11154698414699     -1.46616363463536
