80
Coordinates from ORCA-job 471007 E -1471.512036066943
  O           0.12517719543890      3.36591863426914      0.25311145687996
  O          -7.27004831651411     -1.31414900372861      1.94595383064635
  O           8.83094581099947     -2.06632207043891      0.60424697637449
  O           9.40399031321904      0.33232816069176      2.02905721933008
  C           0.44782727450009     -0.20029876682996     -0.78354725598831
  C          -0.34801047515731      0.90192601279814     -0.01274976141067
  C           1.91952401263658      0.22847112410249     -0.52807903931434
  C           0.35629894664903      2.18390309048937     -0.50397644686622
  C           1.84627416104865      1.77821609816192     -0.59171200533184
  C          -1.83189964417878      0.76378211020607     -0.27383595769531
  C          -3.86016754930304     -0.76911440799655     -0.52026870511020
  C          -0.00281875157051     -1.55769502232598     -0.23835092731807
  C          -2.35130973810311     -0.62019983073289     -0.26833106811140
  C          -4.54760409277203      0.40402010077254      0.24335837272247
  C           3.02427833921550     -0.35617613890346     -1.42344722142087
  C           0.14083309369951     -0.14727613943485     -2.29309654000091
  C          -0.17376818408011      0.79860177395437      1.52203424823248
  C          -1.50533964920305     -1.66008033500711     -0.21105797828077
  C          -6.05241334724352      0.23666348134567      0.56480466310398
  C          -4.13378258782401      1.73215219233017     -0.38338460522227
  C          -2.63766282328076      1.82733067426079     -0.39898291193264
  C          -4.46523739129905     -2.10863124476790     -0.04514193049617
  C          -4.02418013016489     -0.69085863266752     -2.05620180843444
  C           4.40186466787601      0.25663262589039     -1.10173994029372
  C          -5.07349620752261     -2.03635933831205      1.35528326576814
  C          -6.23642605048187     -1.06835011176836      1.36805385294024
  C           3.09488895090692     -1.88553003944559     -1.37148332882254
  C          -6.98194932830186      0.15297079805015     -0.66071878401978
  C          -6.53496111836620      1.39621304903706      1.45256441738777
  C           4.92256727429415      0.00916565547693      0.32342156410006
  C           6.27617677800293      0.61882404914611      0.52496498389485
  C           7.42653296957540     -0.04221040389223      0.65894304517989
  C           7.51036395176059     -1.56186800561752      0.69564144936665
  C           8.72326401711089      0.69635649206767      0.81181375100438
  H           0.49093071424449      3.24583249177081      1.13621551353686
  H           9.35119616470617     -1.64553538115085      1.30365341572422
  H           8.82739134619339      0.55866158811747      2.76840829001351
  H           2.15914584910557     -0.06893121012567      0.49516992408181
  H          -0.02394948377142      2.43712388376101     -1.49182914360003
  H           2.40248244273522      2.24085422186596      0.22664143728602
  H           2.28800888919116      2.16017969412543     -1.51281682271651
  H           0.38063114981763     -2.37304485849412     -0.85415427676706
  H           0.41508119174943     -1.72788303959948      0.76074889798178
  H          -4.06900829088223      0.40878811972949      1.22947714872983
  H           2.80553061126459     -0.06864510882413     -2.45698249582315
  H          -0.92680227802712     -0.22095599692376     -2.48636884377643
  H           0.50021363141802      0.76919323717569     -2.75917143528034
  H           0.62564494544633     -0.98044102610485     -2.80299392590987
  H          -0.71924953619552      1.61615320014279      1.99406099924397
  H          -0.59599084228632     -0.12669671700739      1.90770980382648
  H           0.86887555892951      0.85143741239129      1.83874267917650
  H          -1.89653377546608     -2.66896355843288     -0.21733311903500
  H          -4.55293595146082      1.84945049220761     -1.38941888457958
  H          -4.52320960558259      2.56940820224196      0.19850310975496
  H          -2.20177672506049      2.81868179623712     -0.41166655142100
  H          -5.25467444666097     -2.39894962721845     -0.74270844407336
  H          -3.73415558624295     -2.91268770567797     -0.09053554798200
  H          -5.06879765916033     -0.63556426371243     -2.35622502093111
  H          -3.50182895157957      0.16602072293763     -2.47878306932092
  H          -3.59138790797848     -1.58893982076344     -2.50070138905254
  H           5.13105328561663     -0.15049815092896     -1.80822584232478
  H           4.37892171628329      1.33397196787716     -1.28225364353711
  H          -5.43397333417665     -3.00583329430272      1.69792332402321
  H          -4.32312365751367     -1.69268372536638      2.07566708346637
  H           3.13303548438607     -2.25361738569051     -0.34408557694277
  H           2.23373231508239     -2.34715067252827     -1.85150894879204
  H           3.98759498604598     -2.24598935537093     -1.88753456634092
  H          -8.01875725764335      0.13860645146759     -0.32483068363455
  H          -6.84107906807139      1.02039139864811     -1.30749619336356
  H          -6.81677255053657     -0.74478473939941     -1.25374971722616
  H          -5.85127036806420      1.56910500332258      2.28702754693428
  H          -6.61301458560300      2.31991647976127      0.87878000006675
  H          -7.51660953683118      1.15966357204728      1.85946405915984
  H           4.22658621129903      0.44757412136082      1.04557480531602
  H           4.94788360657829     -1.06102351715586      0.53032580544955
  H           6.30803249480779      1.70624107024532      0.51798473464568
  H           6.96958660972283     -1.98775721393413     -0.15140028661562
  H           7.01674722696305     -1.93354645462829      1.60459648657984
  H           8.55479341962096      1.77605930894896      0.77177256644687
  H           9.42029517602024      0.42771075577630      0.01765991674080
