58
Coordinates from ORCA-job 471114 E -1606.031799634528
  O           1.01430295186055      2.30514242561233      0.29377936412422
  O          -0.97683900566770      0.72105355683388     -2.05317759541359
  O           3.72474546049163      2.12783048050644     -0.22781142081136
  O          -3.69411516540835      1.11255566547730     -1.66463815779417
  O           4.82440158094122     -0.32735161058819     -0.96603083485937
  O          -4.80492685855661      0.61314644823827      0.84644393298123
  O           1.22354062428968     -3.58788045828206     -0.81871827664358
  O          -1.17860939347571     -1.05731544494663      3.63963838582735
  O          -0.70995908750790     -2.54254592002418     -0.38194679030844
  O           0.76846875746530     -0.45790941075342      2.70373875965983
  C           0.75326447776806     -0.04022252122372     -0.05662843467949
  C          -0.69631579881373      0.13953259247803      0.23850748969721
  C           1.32663765901096     -1.26675319592416     -0.42417864871035
  C          -1.27370584246290     -0.09181989822292      1.49518910760987
  C           1.57277286657680      1.08660527157425     -0.00041866320847
  C          -1.51957369399786      0.55987181638949     -0.80556610167656
  C           2.93677583592075      1.00972048708032     -0.29000992037733
  C          -2.89473356637745      0.72963951055226     -0.62166079469251
  C           2.69540825646810     -1.34654348126225     -0.68851339088892
  C          -2.64322052302131      0.09890025053406      1.68333082472938
  C           3.50151431592919     -0.22439879292935     -0.62537483904211
  C          -3.45493297552523      0.50875301765412      0.64039842638365
  C           0.48816567712421     -2.49018911704259     -0.52851113275051
  C          -0.43697860943034     -0.54008608543738      2.63651640107013
  C           1.31347582565742      2.81136224323748      1.60263383724755
  C          -0.88677127437448      2.07609995031486     -2.51192949896428
  C           3.63448946498411      2.97384210353840     -1.37968077685659
  C          -4.01027099307176      0.05139146722781     -2.57728025342963
  C           5.74702801220708     -0.14263036578467      0.11128226429484
  C          -5.33979359771857      1.93580080896151      0.75970292024372
  C           0.48446828111861     -4.80755372867510     -0.94782508910445
  C          -0.44539987804090     -1.49153881176167      4.79095162803113
  H           3.14228872695798     -2.28796163481911     -0.96733107780288
  H          -3.09332082678595     -0.08930656338688      2.64582011812986
  H           1.01971568168473      2.08685238778636      2.36303856015904
  H           2.37797140296218      3.03225131674942      1.69586120592084
  H           0.73324650075139      3.72548612661103      1.71112591105879
  H          -0.29549920120369      2.67107696144411     -1.81333688068198
  H          -0.38698222955248      2.03291551787623     -3.47765384648290
  H          -1.87953906410902      2.51411822901588     -2.62792132428318
  H           4.30397309622127      3.81198151545072     -1.19708633258110
  H           3.95650159644762      2.43307530982212     -2.27300227691365
  H           2.61345346519190      3.33732246998312     -1.51099521338316
  H          -4.56697353284847     -0.73448266449040     -2.06173195495100
  H          -4.63041835839257      0.49349936063842     -3.35439086571705
  H          -3.10068456767105     -0.36272245366532     -3.01485640207799
  H           5.65078865219061      0.85344546951605      0.54512222992869
  H           5.58461026672685     -0.89983700396525      0.88409246040172
  H           6.74069311718768     -0.26561776287735     -0.31521773123125
  H          -4.88493155686321      2.58002077112470      1.51864817503944
  H          -5.17907680036653      2.36220790501733     -0.23110485990187
  H          -6.40677965784472      1.84540788604441      0.95415887167046
  H           1.22139772699657     -5.57232440729740     -1.17849992131090
  H          -0.03362214573973     -5.04188398227291     -0.01807413618117
  H          -0.24951981248236     -4.72781038014491     -1.74949496475438
  H          -1.19032395233472     -1.87249585390881      5.48439503304134
  H           0.26222819577061     -2.27463285515431      4.51995941425042
  H           0.10197949362024     -0.65962241653580      5.23411018641044
