50
Coordinates from ORCA-job 471393 E -1601.312248734166
  O          -2.25082539514489     -0.03676323763821     -0.30477462708221
  O          -5.06920555143968     -2.38070574460194      0.03364392392772
  O          -0.42673090944558     -4.40654097792899      0.21324910949375
  O           2.41390680895918     -0.52509661082590     -0.22148572418078
  O          -5.41281333679411      3.20919100451415      1.78964110201103
  O          -7.52407713422817      3.32765399864983      0.14164418422191
  O           3.30047201241012     -1.52678629335843      1.60783303223594
  O           5.96610575045083      2.32111399939549     -2.12190551791276
  O           7.98454885012761      0.36395300784964      1.73954162487729
  O           8.15386174999192      2.05524913848437     -0.44783374335578
  C          -3.79805639706362     -1.81017761180429      0.29363157388579
  C          -3.52739507522194     -0.60370077731502     -0.62154421288937
  C          -2.75088588092820     -2.87941018893043      0.04916705241231
  C          -1.37704082677037     -2.27270258418672     -0.03717733565837
  C          -1.19876063484028     -0.89880148529679     -0.19363322322100
  C          -4.57008650048368      0.46810851502364     -0.47315277571267
  C          -0.22788617042778     -3.06228494768811      0.06666069054177
  C           0.06931050519253     -0.32035121178415     -0.22174546910006
  C          -4.50198058429774      1.37742739041722      0.58333863130711
  C          -5.65254074386939      0.51379114583070     -1.34594020782778
  C           1.17205072411529     -1.14186765532914     -0.10316818231954
  C           1.04936406673251     -2.51776783779217      0.03079455221771
  C          -5.49785433258784      2.32223207484963      0.76246998205154
  C          -6.66327862837613      1.45528713678461     -1.16434339495350
  C          -6.58698259011150      2.35658571864862     -0.11770133727555
  C           3.41035770180248     -0.78032718763714      0.67163988828334
  C           4.64222651456287     -0.01395677629333      0.33982394293016
  C           5.73638819634950     -0.17711379285398      1.18849487285441
  C           4.70764440070379      0.81884993824892     -0.77709926914956
  C           5.88327916852608      1.50988477733769     -1.03478468495320
  C           6.90758625436959      0.51644611254002      0.92532906126101
  C           6.96586046330348      1.38148567375150     -0.16675103925190
  H          -5.74109752916677     -1.70229514486244      0.17608570252487
  H           0.42272638391670     -4.84353473342690      0.34002168650115
  H          -6.18291763819194      3.79233802928461      1.75399275651509
  H          -8.22290110340720      3.30172319710672     -0.52026075071457
  H           6.88809330077650      2.59764454250448     -2.21943794020615
  H           8.74147178544179      0.79634969498253      1.31999792659072
  H           8.15406060438444      2.91269873359014     -0.00087012167910
  H          -3.73616514838825     -1.45395361574613      1.33040525895698
  H          -3.51112178078539     -0.96071008721466     -1.65792362903837
  H          -2.78523837590334     -3.62720150304179      0.84236762477529
  H          -3.00471385152151     -3.40388644215810     -0.87755380462518
  H           0.17933409325340      0.74680242425961     -0.34539559949388
  H          -3.66145809570850      1.36970154105350      1.26331422012089
  H          -5.71034698554808     -0.18166441519488     -2.17290489209964
  H           1.92371082316762     -3.14437290499818      0.12975567175935
  H          -7.50436006135715      1.49327285873772     -1.84778208659983
  H           5.67314286739791     -0.84039359330474      2.03834497164682
  H           3.86676323607290      0.93033070736725     -1.44343147460321
