33
Coordinates from ORCA-job 471719 E -992.940723859790
  O           0.51438337053091     -0.49392326343564      0.15749636447745
  O          -4.02742614732190     -1.91018212231070      0.36613133932561
  O          -3.13036755822231      2.63696807227875     -0.20148628951358
  O          -4.85445408801951      0.61427318823540      0.06145324341271
  O          -0.48880366934341      3.42261978325670     -0.31552087581922
  C          -1.23734502506617      1.16742574544544     -0.03488693351816
  C          -0.81109699200603     -0.15732362668154      0.12274941297574
  C           1.47105466385985      0.45977209070734      0.02459753128693
  C          -2.63258554549092      1.39399001733414     -0.05229318071900
  C          -0.22725995813910      2.23663595354472     -0.17614111004224
  C          -1.68313367573928     -1.23211347663455      0.26265658538769
  C           1.14898867342988      1.75655924028478     -0.14305679321369
  C          -3.04439183494764     -0.97581363043486      0.24236245439742
  C          -3.51295148421424      0.32996198464928      0.08542456656854
  C           2.82963989319061     -0.10036951854658      0.06902003438871
  C           3.93231248040666      0.71806645439716      0.33705165446754
  C           3.04380632543958     -1.46281561597638     -0.16353442941348
  C           5.21345224151410      0.18984082048126      0.35872525083430
  C           4.32841554812796     -1.98787991998100     -0.14227685981386
  C           5.41776267533796     -1.16506401931302      0.11695539071226
  C          -3.64688011809573     -3.27004475875685      0.53374429860512
  H          -4.09634241242850      2.57308060166451     -0.18719267032787
  H          -5.34204172813563     -0.21293420022839      0.16649478565818
  H          -1.27904001939363     -2.22429612863479      0.38481725804956
  H           1.92052729814368      2.49877043505351     -0.27742687757587
  H           3.78538378874973      1.76811274841502      0.54838885893894
  H           2.19995124975689     -2.10505138892239     -0.36920977708047
  H           6.05485169562145      0.83608719283069      0.57289026837965
  H           4.47833758577988     -3.04329997826398     -0.33048763251969
  H           6.41893345838390     -1.57596285782411      0.13559733381645
  H          -3.05910236787212     -3.40067870638489      1.44561701516412
  H          -4.57264705208768     -3.83406158260947      0.61190128260472
  H          -3.07334127174928     -3.62313253363952     -0.32678149989449
