35
Coordinates from ORCA-job 473252 E -882.035112020624
  O          -1.52945632429671      1.26830726374208     -0.34601515734479
  O           1.71371496716316     -2.09077713971292     -0.32214803706752
  O           1.71894956470778      0.56389137335747      1.68435095254955
  O          -2.95418459247995      2.97063136903654     -0.39198361934632
  C           1.16982630228765      0.55751396587069     -0.64719290625851
  C           3.39885846157116      1.52424566361891      0.29231628011517
  C           0.08892879485952     -0.43103237682862     -0.34499778976144
  C           2.05619897763773      0.85725311052037      0.56253613490219
  C          -1.23560946147420     -0.05093310926978     -0.17950331234728
  C           0.40351829248436     -1.78279637178119     -0.16052532186554
  C          -2.24654904788813     -0.97108144165786      0.14922433925356
  C           4.40921991558812      0.44892724022258     -0.13715161764543
  C           3.32307034855716      2.66474789082341     -0.72550972655348
  C          -0.58032911571784     -2.72362034731787      0.16557032583691
  C          -1.88986694549682     -2.31085549478744      0.31715009453334
  C          -3.57883473384229     -0.46985368022617      0.30024014311227
  C          -3.85438255724840      0.83826544949492      0.13149492660631
  C          -2.81460404659984      1.79076444807155     -0.21215261307952
  C           2.14864085059842     -3.41586874840138     -0.05642343175469
  H           1.80035476099303      0.20249253122208     -1.46436241793028
  H           0.73410114354248      1.50374912406558     -0.97199675933700
  H           3.71500997538847      1.92382474397947      1.25851779972994
  H           4.48131410560996     -0.34095922604196      0.61134247302938
  H           4.12476621783942     -0.00733246540839     -1.08756299634996
  H           5.39754768024474      0.89536480314011     -0.26206578585465
  H           2.58458496517735      3.41427616732863     -0.43541404628014
  H           4.29245280504099      3.16117913922754     -0.79839828402134
  H           3.06481668984188      2.30190973249025     -1.72222152253292
  H          -0.32633518819521     -3.76287649365108      0.30538033739745
  H          -2.65637955766290     -3.03153207021487      0.57352625965683
  H          -4.36775148057070     -1.16794377520712      0.55663813488711
  H          -4.84854762650108      1.24579895077855      0.23936522671620
  H           1.92583250748524     -3.70283771154631      0.97420572358389
  H           1.68939028057542     -4.13063737944405     -0.74456447234915
  H           3.22523107078001     -3.41034013549368     -0.20706833423013
