80
Coordinates from ORCA-job 475412 E -1620.831360230789
  O          -0.37090074412980     -3.05144298922185      0.24031664936299
  O           2.29937750712900      2.94421430646354      0.17899441363503
  O           7.74694521589834     -0.25286611269418      1.38697885421713
  O          -5.49662713591992      1.50333853965408     -1.69743875685982
  O          -6.60721244795044     -2.59449784474964      1.47867988725009
  O          -6.57800327909653     -1.87619444249081     -0.61421453035351
  C          -0.45293555973587      0.64713950782692     -0.14802337631815
  C           0.31874858253191     -0.62746354054560      0.30900127663191
  C          -1.90570178900010      0.32083863390445      0.29502117992224
  C          -0.59268630581007     -1.74101261007278     -0.26076706673774
  C           1.76634871519184     -0.57158985994130     -0.13924414721000
  C           3.99366376822454      0.64641609888817     -0.28091203977637
  C          -2.01950765852941     -1.20134580086144     -0.00636480931486
  C           0.24111038257164      1.84277988963699      0.48736011286727
  C           2.47237210541623      0.58016248412922     -0.03673232154660
  C           4.55967528469374     -0.80118186953819     -0.17368587621830
  C           2.36616853594744     -1.86055443806129     -0.61333077738485
  C          -3.05576214834332      1.13649416013531     -0.31649434395562
  C           3.79692554795150     -1.73019432915862     -1.11083346101242
  C          -0.40307402420901      0.81506493031195     -1.68180793363314
  C           0.36970294557417     -0.80620666394188      1.84774477513898
  C           1.74520529242369      1.85859025362376      0.22041387338128
  C           6.10793060537201     -0.98665284313991     -0.21499435275984
  C           4.68044524384594      1.45932791802913      0.84096800010547
  C           4.21635902226272      1.32766449929559     -1.64708983231623
  C           6.20656435437005      1.43140311357160      0.73387035275305
  C           6.78217081472377      0.03696040949951      0.71469421132290
  C          -4.39423844752919      0.64206043676868      0.24105533832027
  C          -2.93374370346249      2.64309127737020     -0.07729362717774
  C           6.46201881935912     -2.39612127560291      0.28235285205380
  C           6.73434731510382     -0.81132798881155     -1.61526047346154
  C          -5.60283457301910      1.02397252846875     -0.59398465139191
  C          -6.98918918729678      0.82763565269633      0.00877439941170
  C          -7.16818598880152     -0.25339584825877      1.07397488459745
  C          -8.62715709429870     -0.29724984011741      1.56108185424657
  C          -6.75941326118737     -1.62203384424183      0.54147003026706
  H          -0.71004644684829     -3.10480894910292      1.14016213869874
  H          -6.78615650788354     -2.24930593313324      2.36281936083844
  H          -1.95469478165975      0.47134712993820      1.37816025959860
  H          -0.42037110366868     -1.83977833916235     -1.33021143212818
  H          -2.46770594606896     -1.74349315490778      0.82924591541885
  H          -2.65917110156482     -1.39170999026692     -0.86883612062414
  H          -0.13450776788466      2.79658911186062      0.12447536766948
  H           0.09913323000330      1.84726983086867      1.57147838596579
  H           4.28794250066934     -1.11347502292702      0.84366096934775
  H           2.30831870229244     -2.59212597172231      0.19985531717154
  H           1.72167592065272     -2.27518377858762     -1.39285219922528
  H          -3.07777944641337      0.96154422894946     -1.39388788470853
  H           3.80625181219801     -1.33692863202378     -2.12865789578866
  H           4.25084617265626     -2.71885632669125     -1.15664314937027
  H          -0.85221666267608      1.76628634478218     -1.96514608484666
  H           0.62098285562625      0.81557712201388     -2.05147895238931
  H          -0.94811379536140      0.03402136606852     -2.20931965808444
  H           0.86223126263830      0.03073905740813      2.33544927308179
  H          -0.62057953607060     -0.92341435129747      2.28965656203210
  H           0.94730443859410     -1.69979875170889      2.08536569277783
  H           4.33834750301135      2.48849798481434      0.82650447001319
  H           4.38211712759972      1.03603983873675      1.80593938492005
  H           3.65899782903133      2.26117762815681     -1.68039529280086
  H           5.26057221758709      1.56853967012242     -1.82846174915658
  H           3.87378537217532      0.69884089705131     -2.46856706824871
  H           6.52148042636808      1.93541872706152     -0.18536242788550
  H           6.66877794569406      1.96952228843565      1.56124819491385
  H          -4.40816923139060     -0.44882538477935      0.31109514804161
  H          -4.53884939670455      1.00688801861164      1.26528885005060
  H          -2.80356839726175      2.85975428887191      0.98703444404568
  H          -2.09002325508268      3.07676503606675     -0.60986846721105
  H          -3.83004546169486      3.15664147837468     -0.42504583295545
  H           5.98804443771677     -2.60619282313479      1.24301782511033
  H           6.14596927534032     -3.15651847816500     -0.43119889751539
  H           7.53760590096277     -2.48204980343642      0.42017666183132
  H           7.78875923916489     -1.08821230399344     -1.57633787409056
  H           6.24128579883372     -1.46608533688219     -2.33505971032974
  H           6.67025186948300      0.20586054223583     -1.99208916396329
  H          -7.26340654966430      1.79239037384141      0.45090432885237
  H          -7.67171770904455      0.65666211757228     -0.82358114185584
  H          -6.52717068022475     -0.03135559293784      1.93409282782928
  H          -8.91769242978339      0.67551378796291      1.95905308899618
  H          -9.29664769890870     -0.54158517961529      0.73516275092423
  H          -8.77962764271075     -1.03867726415422      2.34735921699229
