82
Coordinates from ORCA-job 476486 E -1472.775824179612
  O          -2.91946421923531      2.06908676038441     -2.08888819783101
  O           6.29305317484227     -1.46564497586609      0.91439094815876
  O          -4.02484024451990      2.16973390861733      2.01073273694446
  O          -2.98068050198060      0.25251160504558      2.29203255490841
  C           0.87322996880184      0.83867031532823      0.20618986459660
  C           1.56334991367313     -0.55020936181960      0.07275533755099
  C           3.09473898015456     -0.66297534170923      0.41154195087010
  C          -0.51141115673317      0.77163797599569     -0.58403779598118
  C           3.82125792866115      0.49170585919693     -0.32720346750985
  C           1.77618812520501      1.93083404382798     -0.39609974564703
  C          -1.32036260483338     -0.44852310292672     -0.13420284529939
  C           3.22649825388753      1.84450479047977      0.06525736992130
  C           5.38615139668884      0.46020877171632     -0.31255827565699
  C          -2.80499485166502     -0.43934825053873     -0.46763207058527
  C           0.71362598537421     -1.60440931224744      0.77703787569117
  C          -1.30703287167423      2.07323367288757     -0.30189889458209
  C          -3.51077159768297      0.86421379225377     -0.00904361816695
  C           3.59488578517197     -2.02417628194043     -0.17557473145069
  C          -2.78081239463054      2.06851530014982     -0.66935603894819
  C           0.61001848397837      1.17157079906927      1.69147106646509
  C          -0.74034277973069     -1.49283645463222      0.45021835613072
  C           5.91412838181736     -1.00122626224167     -0.38959770618340
  C           3.40289467947035     -0.66111989252150      1.92061755498787
  C           4.87564884298170     -1.92169416736309     -1.01295212034472
  C          -0.30246152816559      0.65573284061195     -2.11470856772969
  C          -3.56466692249804     -1.69489363761459     -0.02587625884567
  C          -4.98971718813228      0.82632183437665     -0.44806323425158
  C          -5.05620665573165     -1.71755835912014     -0.40983172123896
  C          -5.71883338660965     -0.41166464714362      0.06238859711042
  C           5.86620027726681      1.16316552803556     -1.59661686232536
  C           6.00692042053734      1.19945531479021      0.88099353444610
  C          -3.45743244318919      1.03096496419536      1.51845347179202
  C          -5.72854072455222     -2.89865029251682      0.29745183148852
  C          -5.22806034223638     -1.89743094956020     -1.92542314241432
  H          -3.81523539894953      2.33513274706669     -2.31727891697090
  H           6.57880791707765     -2.38152279864637      0.83098561736770
  H          -4.38368279877907      2.71186123949021      1.29726584468440
  H           1.53129161343602     -0.79254969024923     -0.99142087557284
  H           3.55055171653492      0.35488870061440     -1.38176698980540
  H           1.78189256034935      1.85121764165813     -1.48389240300575
  H           1.36760916207626      2.91578389382399     -0.15739097115988
  H           3.30304866354484      2.00662133669155      1.14147254951262
  H           3.78859604558664      2.65559893470068     -0.40209372801202
  H          -2.86944833696149     -0.39097830732483     -1.55891877130294
  H           1.06322308663358     -2.60823986724711      0.51966603674356
  H           0.82490522610385     -1.53239825746410      1.86376126822172
  H          -1.27085595520772      2.29722957159517      0.76240790113162
  H          -0.83244494027202      2.90931275705464     -0.81669384973474
  H           3.75824084185569     -2.72673352166140      0.64276044134211
  H           2.82210462109979     -2.46944811844904     -0.80482733970323
  H          -3.21430849816322      3.00492007973172     -0.29037904484140
  H           1.46152944904996      0.91636010389607      2.31225362002827
  H           0.43271475519835      2.23809953036038      1.83137174547324
  H          -0.25297042998453      0.63450331456231      2.08221383125091
  H          -1.34654446305083     -2.33225027793657      0.76388763957364
  H           6.81495493011761     -0.99439972259929     -1.01538502439784
  H           2.75085639603575     -1.35426804862437      2.45179308290017
  H           4.42566198843977     -0.98596204950273      2.08829624619199
  H           3.28696928602238      0.31757146090795      2.37990186850426
  H           5.30307017642229     -2.91970648130021     -1.15763806787722
  H           4.64544475443023     -1.55026846156635     -2.01516390289267
  H           0.41867226390791     -0.12066039515396     -2.36304272848960
  H          -1.23721362366327      0.40830170141383     -2.60939028130259
  H           0.03640368212769      1.59610765141142     -2.54803014409734
  H          -3.08407230264575     -2.57013062035956     -0.46947553551518
  H          -3.47979515823381     -1.79832934069491      1.05594103161577
  H          -5.51625376939249      1.73068981982172     -0.12385678841112
  H          -5.01774259603638      0.83112012644768     -1.53870942832301
  H          -5.73679552516555     -0.39906982801136      1.15658558646141
  H          -6.76157564783473     -0.38736929489145     -0.26669585821600
  H           6.95464528868222      1.25097578531254     -1.60420367186990
  H           5.56559348240212      0.61055135033449     -2.48996337942750
  H           5.45099161453752      2.16867228090556     -1.67436656927181
  H           5.66922797075974      0.81002123415779      1.83657071969473
  H           7.09362641848754      1.10422103190780      0.85573614294747
  H           5.76434530976741      2.26163429422862      0.83538894594694
  H          -5.64008895932727     -2.80561135910581      1.38197742177268
  H          -6.79116752188577     -2.95296592561176      0.04709662682223
  H          -5.26625117387092     -3.84354982600657      0.00218121011026
  H          -6.28658300196590     -1.90229738403929     -2.19721193323360
  H          -4.74009166558664     -1.11185050187099     -2.50284595636589
  H          -4.79725963842180     -2.84915929697838     -2.24386697456747
