52
Coordinates from ORCA-job 479502 E -1341.106965781337
  O           1.96723779647546     -0.04922432125369     -0.23799808429920
  O           1.12059799728990     -4.02761881822222     -0.68283082787667
  O          -0.00256172596477      1.09433519024039      1.63075315453799
  O           1.82910100384634     -1.23487096497966     -2.15530586047610
  O          -3.05740065520834      1.45962992938245     -2.64044066898397
  O          -1.84690893041427     -0.15452606944655      3.02153471665057
  O          -5.14965841508440      0.47418686068612     -1.36118729187280
  C           1.39073507863569      1.11002538413306     -0.87570430381330
  C           1.53819358659331     -3.22286642318662      0.42765425367906
  C          -0.10662896479904      1.04800831255711     -0.71997669906312
  C           2.05115171692156      2.35107809308641     -0.26384005413605
  C           2.63732544958155     -2.29569050980035     -0.13525627734987
  C          -0.68745458230431      0.90006293794656      0.64477795969915
  C          -2.12596756019095      0.51735102280472      0.73846504269697
  C           2.10662502444461     -1.16969251074820     -0.98752649712740
  C          -0.91762952592750      1.15526048172698     -1.77579315506843
  C          -2.97183914324222      0.66144523926231     -0.39029524281325
  C           2.15453657463684     -4.11815900928037      1.50471910215822
  C           0.34427210875110     -2.44890669206598      0.98537301357128
  C          -2.38878663718487      1.12875574202487     -1.67829463201000
  C           3.51345217362785      2.41463203911194     -0.58988795509039
  C          -2.64904549208521      0.02328534459189      1.94208465005883
  C          -4.33175637007698      0.33463739271701     -0.29117868054550
  C           4.52266569952318      2.01491945734038      0.18629284799618
  C          -4.00291349160155     -0.31224563111391      2.01013966651914
  C          -4.82796531207825     -0.15480482255247      0.91945530722358
  C           5.94686509382902      2.11796602435060     -0.28372582776359
  C           4.35539070534289      1.43243580192450      1.56089804322317
  H           0.34382612032932     -4.53254519988735     -0.41717913153423
  H          -2.36382576116912     -0.54600373179576      3.73549374397041
  H          -6.03157200467743      0.15984919439077     -1.12896507306438
  H           1.62048061523103      1.05525376198268     -1.93960882357827
  H           1.54039386640492      3.22371755815189     -0.68093368899415
  H           1.86425851453399      2.35068994830215      0.80606398013482
  H           3.19869825653914     -1.86981730808989      0.69507138499951
  H           3.29985070921960     -2.90558841947979     -0.74836873599355
  H          -0.53085563609200      1.30191770161757     -2.77751791331185
  H           2.47951709879834     -3.53329534416782      2.36748718990598
  H           1.41948938759330     -4.84956097111423      1.84939190246308
  H           3.01163954602049     -4.66011143481404      1.10283280390721
  H           0.64131655390956     -1.72474332352594      1.74334733063684
  H          -0.16924656677019     -1.91767365871609      0.18371406966018
  H          -0.36832022636692     -3.14281380638511      1.43970743541310
  H           3.75702932844559      2.79768625214914     -1.57769912912113
  H          -4.40803801308531     -0.69978834108272      2.93856494175093
  H          -5.87750363772704     -0.41659338585774      0.99691922960893
  H           6.53820866520140      2.73881312863929      0.39709845281547
  H           6.42306497342010      1.13222886108944     -0.29933825221468
  H           6.01404157226900      2.54608699337734     -1.28392246344305
  H           4.89810769193017      2.03133708110109      2.29933541173032
  H           3.31667291562543      1.35375935324769      1.87035916198323
  H           4.79004082707991      0.42823860963017      1.59590547255073
