42
Coordinates from ORCA-job 480774 E -1073.714941169003
  O          -1.67836939238085      1.17859144213086      0.57559986419640
  O           2.07542742071580      0.73311920273879      1.28542790180600
  O          -5.03149829673220     -1.97852759585980     -0.56724895051462
  O           6.64703438158572      0.65810742514271      0.17827315917556
  C          -2.56314394998127      2.29627442761826      0.27341306255137
  C          -2.02302081676197     -0.06624706830205      0.15927172952705
  C          -0.99617318148888     -0.99737941996327     -0.06280178259834
  C          -3.37601918796122     -0.39632119151188     -0.00129521401693
  C          -3.99800529095528      1.88571167839311      0.47875670599225
  C           0.42612895104956     -0.65683662172344      0.10417086209577
  C          -2.31835920096150      2.71255343983957     -1.17879736272518
  C          -2.14191275600122      3.39034932094602      1.24361418996291
  C          -4.37008984830652      0.61679058241265      0.31314703030336
  C           0.89393343680942     -0.07126189243031      1.41317053809404
  C          -3.70437411832212     -1.68964277959708     -0.41976988285315
  C          -1.37864294944201     -2.27618412824226     -0.47848887072731
  C           1.36327194526424     -0.94961014729243     -0.80881121250174
  C           2.75766038460072     -0.62831343051900     -0.57045555477749
  C          -2.70765152117956     -2.62659263512834     -0.66550181854067
  C           3.06490248158737      0.23430400018189      0.49910018723737
  C           3.80548510983130     -1.05456406511301     -1.38467389813948
  C           4.36083763832174      0.66443000827305      0.73100248556738
  C           5.11312439801608     -0.64965198073391     -1.15683566865232
  C           5.38474648093283      0.21622762562031     -0.09839396694393
  H          -5.12932434635315     -2.90046995247540     -0.82953305506198
  H           7.26524427235994      0.27485365999977     -0.45399600776973
  H          -4.71162348402132      2.66160663557071      0.72632322017357
  H          -1.27308076525782      2.99313023915969     -1.31840987212139
  H          -2.55789941504269      1.89025472448892     -1.85374127715991
  H          -2.95137449980179      3.56272318660916     -1.43873150171286
  H          -2.30832686010347      3.07139083310824      2.27271257320655
  H          -1.08404118983401      3.61999465215031      1.11336962632597
  H          -2.72112831924352      4.29656405205624      1.06033157298945
  H          -5.40167151746462      0.31030724524442      0.41694135414366
  H           1.10120195128469     -0.88677279322029      2.12301118301081
  H           0.14671303017415      0.58269498318828      1.84973377727919
  H          -0.60542443130607     -3.01380571901293     -0.64830993231574
  H           1.09130484456069     -1.39980760641137     -1.75684132678889
  H          -2.96943877023961     -3.62821106855137     -0.98672730192094
  H           3.58710336405177     -1.71023671444747     -2.21930709489293
  H           4.57410212676963      1.33834873939293      1.54877520684585
  H           5.91531878493600     -0.99443553879728     -1.79906683942896
