48
Coordinates from ORCA-job 480777 E -1189.426056833926
  O          -1.18698653609422     -1.15613159439277     -0.22742756744173
  O           1.90892024211260      2.33713375061213     -0.99395695696474
  O           3.54577371545078     -2.01844983916816     -0.68554932697605
  O          -3.69577135127809      2.23421840151041     -0.30738922709656
  O          -7.46081570291700     -0.53347995871797      0.48718171286370
  C           0.26631085651400      0.54383782095819     -0.60921078019118
  C           2.65094093001230      0.13786020511365     -0.85530256075141
  C           1.57447448131774      1.02637742995322     -0.82258341483946
  C           0.12264751967013     -0.83960400599019     -0.42828632190966
  C           2.42698553604692     -1.23870911968021     -0.65321694691678
  C           4.06099967392861      0.64946841387676     -1.05771510222863
  C          -1.07266687365720      1.07517550761684     -0.50167183939577
  C          -1.90955053772791      0.02588951331466     -0.27452490520561
  C           1.15352213080392     -1.75885961392735     -0.43882965062772
  C          -3.33911723680215     -0.10953417318792     -0.07968903459611
  C           4.70018488199875      1.03684590656191      0.24849773238025
  C           5.74532428039235      0.46983604366520      0.85304181668490
  C          -4.21825134342788      0.99086279432939     -0.09724387520011
  C          -3.90830871444554     -1.37078425691610      0.13846881118666
  C          -5.58262292826179      0.82475381483031      0.09332970765340
  C           0.90357362228755      3.33104772346396     -1.08232312898184
  C          -5.26801712397818     -1.54856405522696      0.32979936998340
  C           6.51915042122804     -0.69963711557530      0.31302297851924
  C           6.23898719857293      0.98345634906108      2.17842326566592
  C          -6.11164788934922     -0.44205305216557      0.30708404260653
  C           3.40891624562243     -3.40724716452428     -0.45549636704718
  H          -4.40789739778692      2.88355645281799     -0.29194187336802
  H          -7.70377926713933     -1.45591205851181      0.62561790423761
  H           4.64558181100778     -0.10924103085229     -1.57098784626221
  H           4.02035783747859      1.52702288866968     -1.70524181909615
  H          -1.39817533700529      2.09138172449724     -0.57922168847365
  H           0.95968362787137     -2.80789963613007     -0.28484534550277
  H           4.21494440107670      1.86946209962883      0.75072657021768
  H          -3.25428238085579     -2.23004345103740      0.15645129403543
  H          -6.24950336576750      1.67884048243007      0.07778311259673
  H           0.35473355810154      3.42789389037795     -0.14297252548564
  H           1.42761732342366      4.26211837431913     -1.28814835459055
  H           0.20522546238292      3.12207813737655     -1.89579743715613
  H          -5.67043706158770     -2.54101948122848      0.49578730134276
  H           6.52277043023455     -1.51788998537793      1.04067654130279
  H           6.11290734496745     -1.08556677600054     -0.61788868555974
  H           7.56648811322498     -0.42484181645799      0.14887028905205
  H           6.19434533485557      0.19961134209621      2.94221812629153
  H           7.28692372777061      1.29521371131873      2.11332563390463
  H           5.65098192036197      1.83299561981705      2.52649699761294
  H           4.41392293179231     -3.82016941502686     -0.50705030980278
  H           2.98471119800775     -3.60716169917546      0.53309422956693
  H           2.78291628956486     -3.87995209894549     -1.21861054603691
