50
Coordinates from ORCA-job 480787 E -1302.771252397396
  O          -0.43088590327237      2.33304637750408      0.21346647809158
  O           1.53131460745798     -1.83934805974844     -1.04985173027270
  O           4.26091649900173      1.97919513993016     -0.49200962362512
  O          -2.58335866050629      2.57356030526709      0.67950483386348
  O          -4.00895454031215      1.29234342292756     -1.63416564542365
  O          -7.10004273606487     -1.73179245164678      0.32905877061980
  C           2.92069678082080      0.08485923903397     -0.77666064868728
  C           0.50450948294550      0.22385889632292     -0.42009875995964
  C           1.66721860320318     -0.49986222068239     -0.76018495700197
  C           0.64718703598556      1.57922472596979     -0.11999743377792
  C           4.17166830816201     -0.71194949311955     -1.06976220364364
  C           3.00826086874544      1.45926461234609     -0.45792027252386
  C          -0.80716218304817     -0.33792401602897     -0.36307237656865
  C           1.88417086715407      2.21002309387421     -0.13916940851775
  C          -1.89073748841621      0.40720334019392     -0.03987690511260
  C          -3.24522117401644     -0.17127867636360      0.05290201334968
  C           4.93438762964789     -1.04184793698554      0.18749958738656
  C          -1.72587325994819      1.82282228854168      0.30433364477378
  C           5.03061152090281     -2.22912048800903      0.78786086239335
  C          -4.30072479813252      0.31737879605463     -0.73247224362645
  C          -3.51892808822429     -1.22310313742863      0.92250791688907
  C           1.24913203587920     -2.11808385860904     -2.42201594217108
  C          -5.57852911585602     -0.21524286969288     -0.62391953655883
  C           4.37512845921253     -3.49195848427543      0.30500054201861
  C           5.83326805734178     -2.38729311709172      2.05027296416324
  C          -4.78865756296138     -1.77289615405846      1.03967754316012
  C          -5.82276673342004     -1.25510718528517      0.26620566443531
  C           4.43887294703831      3.35359667873677     -0.18369386098354
  H          -4.82282218876441      1.64756804328991     -2.00783248135766
  H          -7.14455571496861     -2.44282741933348      0.97819337564027
  H           3.90181392083387     -1.61880811801791     -1.60249844601346
  H           4.81531350040672     -0.12409941101702     -1.72840772680110
  H          -0.92979950338345     -1.38952371066010     -0.58616871737263
  H           1.93368136814727      3.25946455613300      0.10386854389309
  H           5.43503684397733     -0.19555882072593      0.64705881528724
  H          -2.71686606616658     -1.60246339329622      1.54289158592882
  H           1.14814577917214     -3.19849337927796     -2.50463058093538
  H           0.31969626454948     -1.63684368851532     -2.73882426374248
  H           2.06355413271815     -1.77405263463353     -3.06611333782988
  H          -6.39102767656428      0.15797870577001     -1.23565469419662
  H           3.75565690146270     -3.92008085466706      1.09910084461521
  H           3.73582408793793     -3.33918751365958     -0.56029060249224
  H           5.12936256736375     -4.24609679831785      0.05713554832090
  H           6.29556683706392     -1.44870803907319      2.35631479342427
  H           5.20186052937071     -2.74334634160243      2.87088756490067
  H           6.62428201221528     -3.13306978663900      1.91944754557647
  H          -4.97536648538549     -2.58149053018649      1.73642562146858
  H           5.50568071220657      3.54265884427807     -0.27283897629502
  H           3.89500328348205      3.99049325935653     -0.88644851818585
  H           4.11196943500504      3.57504026311836      0.83574883347689
