58
Coordinates from ORCA-job 480854 E -1345.463869415850
  O           1.10744832326716     -0.42779877380233     -0.47205791172219
  O           0.61294555561652     -3.68199402542935      1.12883104570261
  O           3.17904910256291     -3.20506384859085      1.63882954157909
  O           4.79361788082216      2.43688732727996     -0.89929398041439
  O          -4.93745517429443     -1.68492851344061     -1.28821252724708
  C           0.63969673712336     -1.79660882300743     -0.37577549459500
  C           1.05970286727993     -2.36410620958600      0.97866955873406
  C          -0.83836786239177     -1.78725480706193     -0.61944538837021
  C           2.41231253632200     -0.18928727851847     -0.19888747836991
  C           3.19085983482380     -1.08777920599573      0.55425467590890
  C           2.57688664584802     -2.28922162098624      1.10206092725030
  C           2.94665276055810      0.99891699125965     -0.70568059741159
  C          -1.70984255989195     -1.16329827702796      0.27178937883499
  C           4.53716578764604     -0.78675704791838      0.78965592142661
  C          -1.36621360603589     -2.39223188835965     -1.75212014051097
  C           2.09764064333485      1.95458942078357     -1.50942022962721
  C          -3.08094886372317     -1.12903908666305      0.06537539299366
  C           4.28461120742210      1.26865586717147     -0.42119662237664
  C           5.08441661898851      0.38112878473030      0.31405682085335
  C          -3.58475843903604     -1.73935834104669     -1.09018542478216
  C          -2.73397222616925     -2.37127275145527     -1.98911219415748
  C          -4.00512410114334     -0.43122853779320      1.03635439286078
  C           1.41434593738625      2.96955119970604     -0.63196911628898
  C          -4.31768707350475      0.97146145620246      0.59206100493665
  C           0.10489735289594      3.12176003770631     -0.42675758527269
  C          -4.09691236677372      2.10938441491489      1.25244087138193
  C          -0.39918637460703      4.20387091954340      0.48883047873335
  C          -0.97235804225827      2.28410099792690     -1.05374799142110
  C          -4.45084736455175      3.43496863575482      0.63631997140905
  C          -3.49528016511397      2.20579831676491      2.62591406185591
  H           1.36303474547896     -4.16562315170499      1.51528438153635
  H           5.72783338522051      2.50008681844463     -0.67021387118741
  H          -5.16374878902004     -2.16126350346699     -2.09466800435407
  H           1.13571901105706     -2.37765836859070     -1.16128487197412
  H           0.64556640463034     -1.71311661424891      1.76575059083589
  H          -1.31272750750174     -0.67737265362615      1.15495989886250
  H           5.12452161153072     -1.48742061515297      1.36759239494487
  H          -0.70847374763940     -2.88765760989614     -2.45538128813395
  H           2.74258830759824      2.47501403657306     -2.22044656179658
  H           1.37098747840739      1.38254122291000     -2.08100166544753
  H           6.12268011782013      0.62600653357032      0.50673203132360
  H          -3.14138869967281     -2.84617956251653     -2.87512551644022
  H          -4.93613953061081     -1.00000459100112      1.10940681027165
  H          -3.54662117612980     -0.43928306322386      2.02379198046009
  H           2.09298032208441      3.63805043522857     -0.10904343988787
  H          -4.76018474065183      1.03727541893733     -0.39768897445823
  H          -0.96181888880418      3.77488665100939      1.32350303163754
  H           0.41518802607058      4.80253959923983      0.89727271483350
  H          -1.08644567685928      4.87332094597849     -0.03875200375905
  H          -1.63982669778786      1.88121960728687     -0.28833267998786
  H          -1.59694190458880      2.89781725437893     -1.71167318720396
  H          -0.58772031202814      1.44483917204578     -1.62637288456145
  H          -5.16481702042432      3.98038341636452      1.26194854205729
  H          -3.56393317719464      4.06993960777961      0.54704440004586
  H          -4.88591549758008      3.31497921969162     -0.35580047931906
  H          -4.19482774058605      2.68891136429858      3.31540537342744
  H          -3.22260623476843      1.24130115233167      3.04826403922817
  H          -2.59822664045238      2.83218394429759      2.60730787715301
