63
Coordinates from ORCA-job 480865 E -1385.947328918872
  O          -0.40584958680874     -1.82709935426408     -1.82210149101513
  O          -2.90640098408200      0.94709876075898      1.20757576847197
  O           3.28570439902291     -0.71559783888646      0.74570591991161
  O          -4.83547992376393     -2.99188663765595     -0.60074063724714
  O           5.42899454709987      3.22173085773979     -0.87063927014546
  C           0.86561752228424     -0.15544315009942     -0.55720366245095
  C          -0.42604913771280      0.54975877912330     -0.13377953001321
  C           0.62397863694844     -0.84060228441180     -1.90013413966315
  C          -1.61199506749441     -0.36286668365351     -0.31245293995236
  C           2.06125054364599      0.76270706845289     -0.63512871267549
  C          -1.52841506807019     -1.49663870236742     -1.12177362451867
  C          -2.81398978903533     -0.15084191688673      0.37480221072275
  C           3.25923904962503      0.43832297849489      0.01598167999061
  C          -3.89860298704070     -1.02359333085173      0.30844274017019
  C           2.03649592206491      1.93644673966335     -1.38096137866620
  C          -2.59817176160291     -2.38123660193235     -1.23237307905990
  C           4.39162930655571      1.26329784277474     -0.04148643149392
  C          -3.76193255263979     -2.14250979070156     -0.52008540877472
  C          -5.16751506776233     -0.78521813281294      1.09250624746468
  C           3.14516615381186      2.76322874436152     -1.48338711325871
  C           4.31455582188201      2.42463788463989     -0.81204108954396
  C           5.64498580891929      0.91990186216487      0.73574424707466
  C          -6.21842219867065     -0.07262602485453      0.28501553688277
  C           6.21703179004487     -0.42437110684614      0.36947129897289
  C          -3.27633973515319      2.15797670818526      0.54977716695869
  C          -6.85609337346889      1.06074083871138      0.58457806433723
  C           6.51943491742143     -1.44549103281292      1.18028138371447
  C          -7.88703763605356      1.63488937052777     -0.34885881437293
  C          -6.63576323070074      1.86401424978484      1.83571594404413
  C           7.09442611076101     -2.72062403433828      0.62750111409502
  C           6.34603084724254     -1.43633017793258      2.67389908876320
  H           4.20694317285429     -0.99925583239040      0.86199644116084
  H          -4.60833562594757     -3.73393047661098     -1.17148276122320
  H           5.23815162464330      3.98750737847488     -1.42290679123127
  H           1.08125424293656     -0.94148748384643      0.16608930028145
  H          -0.36002250570139      0.86948436279868      0.90714632325642
  H          -0.55241832563899      1.46239548865939     -0.72418328701359
  H           1.51188681311835     -1.37322990689361     -2.23684677218900
  H           0.35264302373117     -0.09911780664671     -2.66157295815046
  H           1.13068256841040      2.21558373912988     -1.90394058486957
  H          -2.49559773734617     -3.25000319107892     -1.87167125283760
  H          -5.56413438397703     -1.75604511852165      1.40197955697090
  H          -4.92123287118304     -0.23161506461785      1.99479290935399
  H           3.10131835326982      3.67042611415082     -2.07529758352805
  H           6.39160751305519      1.68859978143114      0.53507747232645
  H           5.42818786863646      0.97135560068017      1.80503323071805
  H          -6.46881001361929     -0.56204953271919     -0.65224909386944
  H           6.39348102332595     -0.55900748693566     -0.69464491563127
  H          -3.34850670771274      2.92076341076501      1.32301254491255
  H          -2.52260426886487      2.45771519617608     -0.18355292522362
  H          -4.24111825899651      2.04642851485287      0.04988913529385
  H          -8.85752912581142      1.73066310161543      0.14937420336268
  H          -7.60352905091025      2.64218985102634     -0.67297975321893
  H          -8.01825535670923      1.01475975453028     -1.23573986239315
  H          -5.83185942180333      1.47789304209572      2.45789568605589
  H          -6.40017665471972      2.90362940625976      1.58551676781189
  H          -7.54899834138283      1.89086066556961      2.43912477602209
  H           8.07828222500146     -2.92106167905401      1.06317768522804
  H           6.46077744130630     -3.57619518550566      0.88081555695368
  H           7.20119565449869     -2.68061627621077     -0.45622756361601
  H           7.31923833443049     -1.53060889678575      3.16526895374331
  H           5.86820589176325     -0.53449036808539      3.04954861156699
  H           5.75140162207274     -2.29653498638817      2.99566586125313
