56
Coordinates from ORCA-job 480802 E -1344.256346762001
  O           0.47065590786934     -0.10646262191016     -0.19279222492834
  O          -4.14747228782256     -1.31243904085516      0.14155426992560
  O          -2.87503002935738      3.08027453398153     -1.10848856769847
  O          -2.15794078005831     -3.09984958683902      0.64044972825156
  O           6.53097041327840     -1.60787682447328      0.18862666968402
  C          -1.83888820275489     -0.80998124495182     -0.00212534811156
  C          -3.54318687429774      0.89920600148520     -0.49760011038981
  C          -0.86555004718248      0.15791253407786     -0.27498443112370
  C          -3.19076731453602     -0.40009108413085     -0.11450313825677
  C           0.91087828086350     -1.34588947459173      0.15678103297257
  C          -4.99507185082817      1.28802658052950     -0.68450089315327
  C           2.37460399615014     -1.42972615075589      0.18184671075495
  C          -2.51423651134160      1.81528943149610     -0.74359917248286
  C          -1.17921760179970      1.46001605596790     -0.63470098768674
  C          -1.40548088483268     -2.17047933180831      0.38286966843241
  C           4.54387976146523     -0.49590803930017     -0.44004777664204
  C           0.04251191303945     -2.33906886434917      0.42634917436925
  C           3.15752152607979     -0.44484091064141     -0.43009686203710
  C           5.36122015294411      0.60244753217537     -1.08162760135247
  C           3.02623371199213     -2.49372742604864      0.81110232735105
  C           5.16587297824488     -1.57469777639780      0.19621874846724
  C          -5.82806621817123      1.09301045736074      0.55565618700868
  C           4.40753238088987     -2.56554085645047      0.81544933126487
  C           5.88105923496456      1.57704941288292     -0.05771298744021
  C          -6.97460054103836      0.41497673919463      0.68400098018743
  C           5.41713056750415      2.79961375887765      0.20591347863922
  C          -7.67040018656574      0.32964764084806      2.01437756491869
  C          -7.67942377596447     -0.30153576540716     -0.43427029374946
  C           6.03185775349469      3.63886763722927      1.29214011395451
  C           4.26420356481332      3.45168207125412     -0.50408230483954
  H          -4.98908745505592     -0.85508890392566      0.30338365414370
  H          -2.08258526595802      3.60810705466838     -1.25652773880155
  H           6.83851730044591     -2.40254036840277      0.63892531997181
  H          -5.03117003866082      2.33851880797489     -0.97346725522954
  H          -5.41050114995627      0.72451018627847     -1.52312362954366
  H          -0.38281030618502      2.16765618023965     -0.82536756322917
  H           0.40035872447151     -3.32635035640239      0.67434640440229
  H           2.66730899745090      0.38537649044452     -0.91850869360240
  H           6.20734518335148      0.15739697998148     -1.61036454479090
  H           4.74585377770207      1.10487617610793     -1.82644340057292
  H           2.45714212443873     -3.26141313639179      1.31590772588298
  H          -5.42162767755448      1.56664029131337      1.44551033913920
  H           4.90464235192330     -3.39184910051624      1.31198948620681
  H           6.70353669500121      1.20348040301026      0.54438533031907
  H          -7.78552594487795     -0.71287619652476      2.32624222838208
  H          -7.12429325505112      0.86249335853995      2.79231718893787
  H          -8.67865721888293      0.75068276711584      1.95049404622143
  H          -7.85512206316257     -1.34768661472419     -0.16675361841665
  H          -8.66365196407028      0.14539235915372     -0.60445560363139
  H          -7.13581752345157     -0.27954462064459     -1.37602973080616
  H           6.85488566942661      3.12134264756927      1.78484818767743
  H           6.41170101613839      4.58358139739059      0.88959469218922
  H           5.28704292231567      3.89981420569672      2.05126347736463
  H           3.44618726821117      3.64037395831796      0.19890775962019
  H           4.56089699790178      4.42538628503137     -0.90607304704106
  H           3.86852479704600      2.85461736024813     -1.32280130108305
