43
Coordinates from ORCA-job 480817 E -1036.842326603981
  O          -1.55022348328878     -2.84362727096883     -0.78395885331627
  O           3.12361794988744     -3.01988980376261      0.22682972076182
  O          -5.08924591685392      2.38404858115172     -0.08672080756278
  O          -5.38201771320156     -0.27154902659589      0.24980782043710
  C           0.76357818106128     -0.25580895032568      0.38751207419868
  C           0.74169842936483      1.22534057610244      0.67974252061141
  C          -0.20936946934556      1.94510974145328     -0.27045335499488
  C          -0.45426083270618     -0.86183003626130      0.00265148671225
  C          -1.58209584906496      1.34536379552481     -0.16738282689829
  C          -1.69053555498461     -0.04844982285740     -0.02318692333255
  C           1.95783219178110     -0.97333505267524      0.49365823326901
  C          -0.40934220410450     -2.21998520829767     -0.34505148673828
  C           3.25873173201234     -0.33345909646038      0.93625437600622
  C           1.94453284912391     -2.32582408032830      0.14867521683350
  C          -2.72045514250420      2.14230045967213     -0.18984122404025
  C          -2.97265355555186     -0.59567846453206      0.12673980565237
  C           0.77534715595764     -2.94136589242194     -0.27165521280429
  C          -3.98367206006892      1.58773004158637     -0.06199766992596
  C          -4.09645667628997      0.20743814333870      0.10546936412405
  C           3.97313078393036      0.33792044093719     -0.20553054012202
  C           4.45177376318554      1.58205496142236     -0.26576572010495
  C           5.12742539834600      2.08831767866924     -1.51088379003931
  C           4.38223186320314      2.58400620069969      0.85252470081364
  H          -1.32874582685131     -3.74012260799081     -1.05799194199669
  H           2.97384066244765     -3.93673156893321     -0.02708960698590
  H          -5.86604927375131      1.81957418678311      0.02349039604319
  H          -5.36330779218712     -1.23139969490406      0.32129842327483
  H           0.41242342718720      1.39065897372152      1.71339429521788
  H           1.73951710886538      1.64339506478567      0.58614710649387
  H          -0.24274529128236      3.01211520614630     -0.04449377579887
  H           0.17175594841124      1.84484235961808     -1.29416952126054
  H           3.07087279716989      0.36320141652115      1.75119052410536
  H           3.90118321261876     -1.11726388544326      1.34270354419905
  H          -2.63664829756241      3.21627511716083     -0.30129516124008
  H          -3.09531980017996     -1.66002857993938      0.26281731387057
  H           0.78270599172026     -3.99195972081788     -0.54847570753819
  H           4.09140466250712     -0.29111800467085     -1.08372806572930
  H           6.15460647598029      2.40331028726600     -1.29958257991599
  H           5.15663522015745      1.32801208781525     -2.29142199924924
  H           4.60731073158350      2.96680591141128     -1.90721302262249
  H           3.88039995709802      2.20612656303723      1.74069371581587
  H           5.38934654354410      2.89597403182045      1.14683284123251
  H           3.86093670263498      3.48969994154195      0.52562931254394
