63
Coordinates from ORCA-job 480863 E -1385.963843216519
  O          -5.68249181814643     -0.46461911077699      0.56167884753648
  O          -1.53316258617379     -2.61129086697690      0.43083585801703
  O          -1.77909279413444      2.06788468816887     -0.64463269550218
  O           2.41513431798457      0.07514574577467      1.77164458804425
  O           6.16257147809747     -1.48734514455227     -0.72552005568962
  C          -6.56900747723045      0.60271638883948      0.14500072811579
  C          -5.92713302398486      1.94757279170662      0.49206678365479
  C           0.58269330604525     -1.40884182223387      0.34644758130064
  C          -4.58289970532768      2.12519555500210     -0.20669775174034
  C          -3.76148291216716      0.86915222778108     -0.08952219632580
  C          -0.08582233669823     -0.20443875207801     -0.33190907494203
  C          -1.58165210229233     -0.26142667681325     -0.15922857474332
  C          -4.35026241954871     -0.34157927856597      0.29423855740957
  C          -2.38438522605888      0.86845817847772     -0.31325880974189
  C          -2.21849125118081     -1.44682714249449      0.22640664395180
  C          -0.19056906285456     -2.65921095089905     -0.05027513840033
  C          -3.58759031742022     -1.49235807493345      0.44789762255103
  C           2.05811588315702     -1.48297472432067      0.04200632954436
  C          -7.84203245125912      0.38021073283539      0.94637092190920
  C          -6.83531708526430      0.45247904751587     -1.35296989155050
  C           2.95681615291495     -0.70514096219427      0.78652608340076
  C           2.58727550180911     -2.26233129795372     -0.97947749320412
  C           4.33323441360689     -0.70632934537424      0.54644701733210
  C           3.94914778022862     -2.28454000842194     -1.25327464107987
  C           4.81157455511217     -1.50698044617982     -0.49311047142558
  C           5.28268714391611      0.16250922068166      1.34122073087237
  C          -1.65122499641148      2.29458813793851     -2.04348418455045
  C           5.34133568557495      1.56957063348773      0.80626108945082
  C           6.39097099962237      2.19295676142582      0.26879237602049
  C           6.26634730027210      3.60231073133692     -0.24148457123921
  C           7.75787102015940      1.59124501687505      0.10883771414097
  H           3.11601927495074      0.52604164740025      2.25437900866988
  H           6.36435762107616     -2.08184037982308     -1.45609100340019
  H          -6.61184626330723      2.75593289863217      0.22745861031478
  H          -5.78689666728908      1.98062147142342      1.57565420321247
  H           0.46296130399443     -1.29430991163007      1.42660429705314
  H          -4.74290389181995      2.38442233536915     -1.25868493407523
  H          -4.03442894229020      2.96337288780509      0.22533376371616
  H           0.30090489670740      0.72673146090907      0.08142774908227
  H           0.18792115785169     -0.21163162367850     -1.39311507245666
  H           0.24328439788011     -3.55760484770573      0.38670664146283
  H          -0.21486942885598     -2.77684316136978     -1.14012214470171
  H          -4.05873056780471     -2.41873959740338      0.74440883165892
  H          -7.64034618768054      0.47124765718672      2.01426698522184
  H          -8.59832247024605      1.11627645911043      0.66870610643016
  H          -8.24021207527972     -0.61692177755986      0.75457403879624
  H          -7.31327718949407     -0.50764624021817     -1.54986052101221
  H          -7.49423654974821      1.24831620757568     -1.70592406612698
  H          -5.90981760082578      0.49240237104101     -1.92676648448280
  H           1.93015147571191     -2.87136459251390     -1.58533988970106
  H           4.33694342240887     -2.90306284789654     -2.05469526176616
  H           4.97818528555457      0.18118043553370      2.39677464192228
  H           6.26659373883890     -0.29790531055801      1.33809563543911
  H          -1.17145211686459      3.26488499863917     -2.16166317545140
  H          -1.03396995262626      1.52492007922591     -2.51596016337667
  H          -2.63038728404255      2.31128506300110     -2.53216289238516
  H           4.39980798274289      2.11268229265919      0.83906884311673
  H           6.97559467220553      4.26471427884835      0.26520812255312
  H           6.50278088885473      3.65032926460007     -1.30936769887904
  H           5.26198491706126      3.99987988305861     -0.09515937282853
  H           8.49300521600811      2.15120979334754      0.69591498163338
  H           7.80554092897494      0.54585434219444      0.40174040600136
  H           8.07653903500511      1.65846920971739     -0.93578210875811
