48
Coordinates from ORCA-job 480873 E -1189.435670887674
  O          -0.61132046663347     -0.29253760994119      0.70700359223356
  O           2.34186726454185      2.18989948275498      0.60604587841205
  O           1.36199385899488     -2.43571216682282      0.91465665787746
  O          -3.61642681029863      2.10768097855726     -2.11000893068176
  O           5.03467992309583     -0.82464177196745     -1.76698929431675
  C           0.32166100828653      1.60083034576228      1.85996239951748
  C           0.53664484913984      0.09966402068897      1.53371858477270
  C          -0.69804962673900      1.99690184894963      0.82146272013039
  C           1.62806537167346      2.37340757949300      1.82582745569295
  C           1.79820651904503     -0.14903203088558      0.75931544746453
  C          -1.18088963369679      0.84152125594931      0.22043588147482
  C           2.58932059150861      0.89278623356477      0.27457512286298
  C          -2.14624819468899      0.83108977493600     -0.77636137050799
  C          -1.20144436248559      3.22272269728536      0.43305084971357
  C           2.14918217783855     -1.45947420676975      0.39501930585215
  C          -2.64831269247690      2.08685839892959     -1.13956259307220
  C          -2.18561899198902      3.26600809488455     -0.55295145342712
  C          -2.61287405876991     -0.46173266535729     -1.40002219274618
  C           3.66985573860228      0.66711143855866     -0.57423290711176
  C           3.22576806059358     -1.71177371533700     -0.44757943708192
  C           3.97063555857661     -0.63365892190833     -0.93447097105124
  C          -3.63235150661192     -1.16312041762311     -0.54301182003887
  C          -3.48066281778820     -2.29502530567800      0.14647541262098
  C           1.57577767404405     -3.77680447127946      0.51324288185056
  C          -4.60929137140053     -2.84697142957466      0.97411588094894
  C          -2.22121861934231     -3.11363765044544      0.18866921486799
  H          -3.85511972096077      3.02181967445416     -2.29740610268325
  H           5.14539784618310     -1.76619872843060     -1.93916992332077
  H          -0.09601082408935      1.70663055985780      2.86716703272125
  H           0.48336359697042     -0.53628367804403      2.41418741923483
  H           2.27033939312811      2.06443195774931      2.65931577810183
  H           1.45081897779509      3.44508875828883      1.90351783178518
  H          -0.84590440582616      4.14356217822743      0.87888059182238
  H          -2.59557923523492      4.21765512439025     -0.87173808109972
  H          -3.05078699007947     -0.24236250404677     -2.37488713920978
  H          -1.74473534186984     -1.09842633470307     -1.56735216533020
  H           4.26400197309852      1.49475847634623     -0.93237934319515
  H           3.49294115315461     -2.71992124010478     -0.73092234719967
  H          -4.58830885512605     -0.65068085811434     -0.47363830827776
  H           2.56225399463061     -4.13491536302824      0.82282160775610
  H           0.80618248764480     -4.36313286069126      1.00902967192195
  H           1.47182754305630     -3.88573044277729     -0.56999074848783
  H          -4.31904000618619     -2.92113025972416      2.02757930114709
  H          -5.50147615827259     -2.22386136630820      0.90848800091682
  H          -4.87374523161000     -3.85968163100822      0.65169587480938
  H          -1.88682873995368     -3.23156050891387      1.22398358426206
  H          -2.40615705204789     -4.12018536761433     -0.20211826715114
  H          -1.39986984742447     -2.66655137252912     -0.36331158478097
