50
Coordinates from ORCA-job 480859 E -1190.642999384772
  O           0.63869777687210     -2.47561015612845     -0.91048577727498
  O          -1.74175439773510      1.23915890117138      1.00156427394156
  O          -4.02804575813768     -2.76137827893545     -0.12811563756013
  O           4.14255192934793     -1.16810602306730      1.87726765192546
  O           7.01272180701683      1.94656155157263     -0.26958062531557
  C           1.99559791951913     -0.70778811800834      0.10912315035671
  C           0.78491555765963      0.22877164466832      0.16820463049419
  C          -0.49706460292511     -0.55087208484382      0.02892263172916
  C           1.80627772817171     -1.66891310523348     -1.06273747616458
  C           3.31434286818678      0.01769921883015     -0.00002134296467
  C          -0.49440858764630     -1.85037304160319     -0.47904678410435
  C          -1.72366310692335     -0.03278483995460      0.46401749281239
  C          -2.91344150648606     -0.75790786110075      0.43788772983133
  C          -1.66615442189858     -2.59973772839625     -0.54286409358351
  C          -2.85427507227511     -2.05453532326400     -0.08460034398353
  C           4.36179677277336     -0.24382960545392      0.89425803547701
  C           3.56007188920663      0.95104560988132     -1.00327854442367
  C          -4.21319722512278     -0.18346182481212      0.95006538223560
  C           5.58468069127572      0.40951515476475      0.79159867845995
  C           4.77489181075603      1.61272009574740     -1.12940553233770
  C           5.79130884739469      1.33837861481527     -0.22073928157516
  C          -5.04402790759155      0.42839086473726     -0.14527343530018
  C          -1.85151307976766      2.28612653686722      0.03815674799633
  C          -5.53461361773752      1.66782978964838     -0.20860899442451
  C          -6.35205718142589      2.11374620855409     -1.39044715932111
  C          -5.34309875408203      2.72113333588854      0.84640888323353
  H          -3.85327485752711     -3.64319210079597     -0.47437910482316
  H           4.92927547722683     -1.24426308052710      2.42816835921196
  H           7.03342631486108      2.56436535136974     -1.00902045899083
  H           2.00684495273284     -1.31158056874060      1.01665824920684
  H           0.77963006228724      0.78347922588643      1.10754825131697
  H           0.86751417129321      0.97740989999133     -0.62574635160267
  H           2.63650341665878     -2.36929652299276     -1.13781787510127
  H           1.73579092553495     -1.11018101097119     -2.00404428873257
  H          -1.62397707668824     -3.60495342763280     -0.94491154342256
  H           2.77585155813188      1.17587581774955     -1.71511000366152
  H          -4.78506378120269     -0.99342846216765      1.41102060340265
  H          -3.99128717006371      0.54214800134719      1.72820848801860
  H           6.38657946991908      0.20503390097927      1.49122464328058
  H           4.92790447339108      2.33469199321798     -1.92300129854564
  H          -5.25476141099200     -0.24274830560766     -0.97342455638800
  H          -1.89526712549019      3.21859531042777      0.59803475953802
  H          -0.98423268662070      2.30524774778162     -0.62768634343955
  H          -2.76005409830279      2.16946167789150     -0.55674274443601
  H          -7.34826676969152      2.44289847576154     -1.07671590124529
  H          -5.88451339667662      2.97011126294710     -1.88853800243346
  H          -6.47116102798675      1.31540047376476     -2.12309034779735
  H          -4.68545080307126      2.40654904954923      1.65325130928952
  H          -4.92541251647875      3.63209181736174      0.40528492237114
  H          -6.30610647967044      3.00346593706391      1.28420497482403
