45
Coordinates from ORCA-job 485077 E -1167.146272884163
  O           5.19612102876858      1.81326940869976     -0.13203899552978
  O          -4.03537513502522      1.88011190972418      0.68674389759562
  O           6.12445345256208     -0.29722477144713     -0.14889948108003
  O          -5.77026253044734     -0.07480398121336     -0.02659639243377
  N           0.02961176851860      1.36876414146444      0.01967456812084
  C           0.60009818772258      0.06603923809787      0.07354672737122
  C          -0.22162971620249     -1.05374048341939      0.14617915642558
  C          -1.20575310229168      1.45990109565581      0.79079841183157
  C          -2.19848542425503      0.39881308949128      0.39530418166814
  C          -1.67911167131204     -0.87228231726305      0.09734606377457
  C           2.01262645741856     -0.06230546570434      0.03155744760955
  C           2.58901182781824     -1.36873118822635      0.04740434284282
  C           0.37497145929746     -2.33342902165008      0.21060919150413
  C          -3.56000669439462      0.64173061127631      0.33087815203466
  C           1.73238539731726     -2.48697433162311      0.15005882656616
  C           2.85422336961231      1.08700832588894     -0.00833470952501
  C          -0.09288576845192      1.89205789314525     -1.34160121732315
  C          -2.56483894668894     -1.87913677187194     -0.27325972830647
  C           4.00267844737462     -1.52858962468851     -0.00744519408459
  C           4.19384062157165      0.88062797131545     -0.06293810874624
  C           4.76154459698773     -0.40527974050019     -0.06837868377358
  C          -4.44666885757547     -0.39143125496918     -0.02201270159880
  C          -3.93393851296308     -1.64749135401986     -0.32829489561861
  C           6.41973528819298      1.09173564554631      0.00891256237871
  C          -4.55812851431408      2.66158730736740     -0.38752958977512
  C          -6.70115521307047     -1.09855262946477     -0.33128185932296
  H          -0.95127479990959      1.34385338849290      1.84979392320566
  H          -1.62792138257852      2.45515031979358      0.66967883814022
  H          -0.25427306561089     -3.20762778506406      0.30931501082213
  H           2.17059454672482     -3.47661289878262      0.19295541724169
  H           2.42508009547276      2.07619032601102      0.02789192188513
  H          -0.39468953589996      2.94006189413778     -1.29822349565783
  H           0.87223190200739      1.83235805162027     -1.84222414115772
  H          -0.82564108509694      1.33968217291830     -1.94645582346272
  H          -2.19443980554531     -2.85768000300769     -0.54546994066081
  H           4.44577672785711     -2.51492940931755      0.00333631764689
  H          -4.59406735338958     -2.45293831963855     -0.61364948187309
  H           7.11753342862546      1.40442046166144     -0.76762062557545
  H           6.83225088999051      1.26458664583984      1.00926165959653
  H          -4.85976883582701      3.61384359902734      0.04482997156559
  H          -3.78833314916551      2.83322796554175     -1.14694160657503
  H          -5.42108188399273      2.17663339391890     -0.84574456650011
  H          -6.62948335383958     -1.92537081143203      0.38129899641215
  H          -7.68475024876500     -0.64089557252359     -0.25589283236284
  H          -6.55580336029668     -1.48269188143180     -1.34548104292085
