81
Coordinates from ORCA-job 485711 E -1397.543234872745
  O           6.97927386098198     -1.23683097625001     -0.24706626440135
  O          -4.40472911141718      2.92899265355416      1.08796855914295
  O          -3.66414475208598      1.10861362146273      2.08035745846117
  C           0.63075077049793      0.94203025537168      0.05854672114293
  C          -0.78253368988883      0.76673667497647     -0.66917678331046
  C           1.31208510800228     -0.46321943613972      0.14328906721134
  C          -1.64344767684310     -0.24479610539092      0.16010167030218
  C           2.82477313419679     -0.52385712361796      0.56155009214625
  C          -3.07757830145343     -0.31372825625415     -0.36720500371500
  C           3.60296748483169      0.48205054233602     -0.32851566702927
  C          -3.77348695148055      1.06283817913911     -0.36459240062270
  C           1.54947785917605      1.87896191408221     -0.75041844503916
  C           0.43271271137761     -1.45972259153641      0.90491226477607
  C          -1.53262462356907      2.12135530632910     -0.75853588786403
  C          -0.95138090192234     -1.60086403302224      0.27380477923263
  C           2.99474901705320      1.88222124114264     -0.26001978772838
  C          -2.97435631072346      2.00380794912617     -1.27015001512393
  C           5.16448352631976      0.47529832281670     -0.18550335906274
  C          -4.09739421914414     -1.27449431073297      0.28546499129940
  C           3.33606569087579     -1.96212249778629      0.22177660596883
  C           0.43495984937731      1.57525180426392      1.45056823051589
  C          -0.60450923796340      0.26921294471512     -2.12136155466121
  C          -5.19030495450466      0.67414114409847     -0.83241688807907
  C          -5.48424072239898     -0.63448037036275     -0.07291565650999
  C           3.04289102593291     -0.28305671014681      2.06788430831149
  C           5.64860807297348     -0.95492941033623      0.19405391926536
  C           4.74079257612446     -2.01326573177451     -0.39464169342523
  C          -3.91014656965428      1.66192564992755      1.04557810857568
  C           5.68455972167974      1.46629671996068      0.86679968053122
  C           5.74964141913627      0.87111869848701     -1.55139695507538
  C          -4.02718641966106     -2.71859017047100     -0.14967612691062
  C          -3.93581925974623     -3.00649278465026     -1.62272926352178
  C          -4.09155606535587     -3.70293137648279      0.74405708156445
  H           7.58775605106939     -0.64088441482156      0.20221502884329
  H          -4.55209053295500      3.26282614326774      0.19386410315421
  H           1.34868498786291     -0.82099647964762     -0.88770455733624
  H          -1.72005914802990      0.14824660715709      1.17205627491376
  H          -3.04022923165336     -0.58799483253883     -1.42429534447888
  H           3.41729245496869      0.13305594686770     -1.35172961964370
  H           1.56130902962341      1.57468082121875     -1.79854612420149
  H           1.15338497766356      2.89688008359583     -0.72394725093378
  H           0.91519785220133     -2.43763328674493      0.93814389221470
  H           0.31305011418584     -1.14561837623204      1.94411861946105
  H          -1.57223712406702      2.59218947289328      0.22366171811896
  H          -0.97780134400516      2.80300683812434     -1.40521956430957
  H          -1.56033202734613     -2.27250447014628      0.87807966770221
  H          -0.86434568221348     -2.07277335751052     -0.71006743173404
  H           3.05523835920110      2.28054739976669      0.75379150667757
  H           3.57079195843445      2.56881291638364     -0.88415090071344
  H          -3.00324015555010      1.60496533879556     -2.28585371085328
  H          -3.41639305819919      3.00389894481723     -1.34017306729852
  H          -3.97036616343961     -1.23847997995002      1.36530164544551
  H           3.32081731749197     -2.56749448158860      1.13053613853174
  H           2.64624306995840     -2.44496030851392     -0.47266991301932
  H          -0.19122437515058      0.98290794243783      2.11227715244728
  H           1.38464574844276      1.71455559336565      1.95373559242339
  H          -0.01595054346410      2.56300361783382      1.37076493834472
  H           0.03715348113602     -0.60305658094512     -2.20461605204844
  H          -1.55822159232445     -0.00663001126608     -2.56644233062798
  H          -0.18196127336650      1.05029108200338     -2.75260179306201
  H          -5.94323066239130      1.44402540657652     -0.65397684845974
  H          -5.15348871972588      0.49875423834864     -1.91043454059257
  H          -6.09895509029776     -1.31014804316781     -0.66683010564151
  H          -6.03502638617086     -0.43308824790377      0.84559294802428
  H           2.30202469230009     -0.82397195276947      2.65631160618426
  H           4.01917598194999     -0.64488568080944      2.38391139514931
  H           2.98387289948631      0.76485342974590      2.34918171201375
  H           5.62865593371032     -1.04773297518028      1.28537416182325
  H           5.18705741321380     -2.99557151827593     -0.23264754257687
  H           4.69324471840270     -1.87150188173519     -1.47742493601305
  H           5.25339111559899      1.28749718439542      1.85088943100509
  H           6.77119104262556      1.37921863635708      0.96138775279684
  H           5.47657783903266      2.49958868474148      0.58824913827269
  H           6.82992844575813      1.00245328094566     -1.50404759057453
  H           5.54581641719073      0.11085539072773     -2.30641829071471
  H           5.31431584632678      1.81176983341275     -1.89225216639173
  H          -4.08670230515808     -4.06607426374729     -1.82667335944779
  H          -4.67995288970631     -2.44028960836313     -2.19064117731985
  H          -2.95686301436097     -2.72478438273399     -2.01939923826445
  H          -4.08980747593736     -4.74445415149051      0.44579168431044
  H          -4.14474901304749     -3.49672828453208      1.80634856203169
