75
Coordinates from ORCA-job 489922 E -1281.817986937984
  O          -7.20401574041414     -2.10825920576495     -0.63260704166749
  O           5.48095637649460     -1.62070321017146     -1.69322620595173
  C          -1.21641831248698     -0.16799304995279      0.01638178283877
  C          -2.73507840773062      0.07889114014143      0.30301520456425
  C          -3.30038247513255      1.47003615484401     -0.19042102498844
  C          -0.37852063880354      1.09853334310650      0.39214127526481
  C          -3.59537140772449     -1.08786601096839     -0.20870591456108
  C          -2.27360466419293      2.23897512358470     -1.03272059666140
  C          -0.84193928866841      2.30432613350574     -0.47689552732321
  C          -4.55520474120728      1.24854107902213     -1.05929135452548
  C          -0.71355789693554     -1.32231562143682      0.89690206255445
  C          -5.10360766294853     -0.97032433468796      0.07736017077234
  C          -5.62714894503314      0.42739009969541     -0.35280770661936
  C           1.11952654751568      0.82587362399285      0.21011449993590
  C          -0.96897564415596     -0.56439622992261     -1.45714043659376
  C          -3.70744363304930      2.35856084002293      1.00222890723128
  C           0.76784327352897     -1.63589206972952      0.68186996308030
  C          -0.51107083257653      1.45564532510190      1.89761822747230
  C           1.66280271097878     -0.44805996414695      0.40764506484353
  C          -5.78797532121496     -2.06144964180322     -0.76335634880308
  C          -5.38924713493423     -1.22315910630253      1.56199657814138
  C           3.05390811571510     -0.66246870988076      0.29111164565173
  C           1.99411199754588      1.87696239691010     -0.06102655419650
  C           3.91171891907875      0.39901224089322     -0.02247516719935
  C           3.35455047301662      1.66777599263753     -0.17531777429505
  C           5.42829978145633      0.23423407514214     -0.15919526665414
  C           3.58648778177757     -2.06676310427009      0.46067250748924
  C           5.81231436483739     -1.24307554867765     -0.35156718240669
  C           5.09768955033921     -2.14198391687867      0.64300892517281
  C           6.10252855045095      0.75939947360872      1.12528993259953
  C           5.98253766384150      1.03463074668165     -1.35140547830274
  H          -7.42179124111538     -2.39847670642516      0.25899749842450
  H           5.69459172055438     -2.55299711584756     -1.80518792818243
  H          -2.82768602737470      0.07393827981131      1.39070768155415
  H          -3.46209831617439     -1.18725404779321     -1.28743816629184
  H          -3.23878079930112     -2.02398178025012      0.22421246931035
  H          -2.24990362217596      1.80499833762325     -2.03214972887157
  H          -2.64250394380566      3.25902516546185     -1.17482128647842
  H          -0.71803878346079      3.21934940474700      0.10504093085686
  H          -0.17175529303768      2.40419505528489     -1.33066861601179
  H          -4.96034050947687      2.22330544775318     -1.34576722225943
  H          -4.26793030117916      0.75670736919432     -1.99325950527578
  H          -0.89728101758018     -1.08246498797862      1.94470522118671
  H          -1.28435670472078     -2.22819028842875      0.69054020903357
  H          -5.98111510650448      0.97525162283200      0.52243303224051
  H          -6.50064118103299      0.30721313431726     -0.99545236782134
  H          -1.25941461370996     -1.60185656653117     -1.62673206671095
  H          -1.52930350068614      0.04454035552942     -2.16050217981894
  H           0.08480536353476     -0.47446160527408     -1.71585381225761
  H          -4.29190269353162      1.81265367269966      1.74353543113262
  H          -2.84355437065696      2.78037586816960      1.51056877739701
  H          -4.31513913213871      3.19635918650759      0.65147163230152
  H           1.13514517141974     -2.18298216005455      1.55363561630198
  H           0.87199115711474     -2.33695990540147     -0.15369805360687
  H           0.00645606851133      0.73074830829463      2.52326211099094
  H          -0.03838103279264      2.42240154598216      2.07610894489507
  H          -1.54064563278305      1.51627596153436      2.23767189787454
  H          -5.34791949198823     -3.03839668253528     -0.52211893824052
  H          -5.60214991531514     -1.86922192595163     -1.82203605662640
  H          -4.85542913251210     -0.51343594827369      2.19481370652747
  H          -6.45281420183303     -1.10664647852940      1.78473962193068
  H          -5.08103943946479     -2.22995601193325      1.85947519175074
  H           1.61239060707590      2.88027314173602     -0.18847245368504
  H           3.99121404327905      2.51324792753661     -0.39726123098467
  H           3.10525328493340     -2.55177956189737      1.31130403861379
  H           3.29565455496499     -2.65468748810975     -0.41653091048159
  H           6.89879491733511     -1.32233454791921     -0.21485751874570
  H           5.37394739024906     -1.84845919131647      1.65776326221425
  H           5.43785034694547     -3.17552663927950      0.52086960653236
  H           5.74678791988520      0.24195156813703      2.01607213720225
  H           7.18819706217984      0.64579192263703      1.06794181470975
  H           5.87953774846213      1.81890940288842      1.25375882642771
  H           5.90507487240574      2.10756571584402     -1.17798526310683
  H           7.04017559858810      0.80005814084556     -1.49224598241224
  H           5.45668081754543      0.78900204006650     -2.27087853840245
