86
Coordinates from ORCA-job 489920 E -1438.027019777703
  O          -6.41115004313066     -1.24400793543055     -0.66658115081404
  O           3.49908558356863     -0.10536842497216     -3.04033394294533
  O           3.20604157057496      3.87797835974677      1.21873869563535
  C          -0.81000955177681      0.66188762162305     -0.34068130728442
  C           0.61982809514110      0.44644960268373      0.33515911844380
  C          -1.58145335432398     -0.68411380979985     -0.20838285415850
  C          -3.13852591627603     -0.68086981235212     -0.41860530185521
  C          -3.71452880999062      0.48281925802932      0.43192818136903
  C           3.52754971395033      0.51118796593962     -0.62874852395883
  C           1.32255687935660     -0.73170048598231     -0.34048383489582
  C          -1.57998223421198      1.79832874423900      0.35907385337878
  C           2.83441971553081     -0.83313392723114     -0.29581436375886
  C           1.45636659532582      1.74555566168299      0.23727985628115
  C          -3.07139515699569      1.81374180783178      0.04052728327003
  C           2.97959476333508      1.58402044608736      0.35184488676253
  C          -5.27317553991149      0.55290238340325      0.56209890202251
  C          -0.86787862023692     -1.76693132845542     -1.02497828223486
  C          -3.68088142678700     -2.03373624583291      0.15025817197056
  C          -0.64750988549363      1.05668800370546     -1.82311477546439
  C           0.62378768558863     -1.70831906256645     -0.91804490568226
  C           3.34420017234423     -1.45748286270531      1.01927581750634
  C           0.50457003394254      0.10700949412679      1.84581582994115
  C           5.05466865806455      0.31575797621406     -0.53506542973178
  C          -3.57155699146914     -0.58260776319940     -1.89304039543223
  C          -5.89300021922026     -0.87252038392146      0.61925199244357
  C          -4.87168784864781     -1.88944979624698      1.10549562053395
  C           4.86856950015536     -1.65208645326872      1.08048533408208
  C           5.53628865131018     -0.30052091299924      0.77387608128190
  C           3.20792640173612      0.91447007678535     -2.08678703205417
  C           3.64259206822274      2.95851398446882      0.21751404102753
  C          -5.58536764545855      1.21726617961746      1.91654401811656
  C          -5.94670357283319      1.39227883557031     -0.53271922027069
  C           5.25384367168795     -2.10105503760423      2.49358797856966
  C           5.32848390009755     -2.72763337139563      0.08641398625617
  H          -6.76782731311153     -2.13577494356532     -0.59604122336281
  H           2.76523015897923     -0.72900873582489     -3.04112201305658
  H           3.48976596260926      3.54616500003366      2.07778472050949
  H          -1.48080986831957     -0.96795691741562      0.84083022617115
  H          -3.35862964205506      0.27923407508864      1.44991051685234
  H          -1.48925372658242      1.71038914462981      1.44174967963288
  H          -1.13113058455818      2.75736696024943      0.09138681918583
  H           3.11998845902834     -1.53514758194631     -1.08101943263029
  H           1.25121558183006      2.25910202417949     -0.69879970581861
  H           1.12911678476141      2.43081229404539      1.01872581820222
  H          -3.24317421619127      2.03185612118312     -1.01428075683741
  H          -3.53294188487194      2.63392006575186      0.59386204673072
  H           3.21697075777178      1.23746589227787      1.36349633996033
  H          -1.21207662049770     -2.75894464425341     -0.71819907655803
  H          -1.13624416951221     -1.68960658638632     -2.08331229902083
  H          -3.96526067464280     -2.68090866596706     -0.68051589910047
  H          -2.88936824567364     -2.56125487964156      0.68566945459090
  H          -0.21805699614717      2.05239850423092     -1.92297846013397
  H          -0.01371395675309      0.36186408326538     -2.36950788858856
  H          -1.60858114464568      1.08432007000797     -2.32566081015107
  H           1.16548914576506     -2.53813918865062     -1.36735555697581
  H           3.05311559309352     -0.84609732439357      1.87254277404232
  H           2.84310555912693     -2.42019164687869      1.15364688375919
  H          -0.17629807805520      0.78219327526471      2.36070162768603
  H           0.17517025736308     -0.91566030429660      2.01720193711100
  H           1.47261688916795      0.21560012312400      2.32918455555178
  H           5.34792400924160     -0.32422659113986     -1.36900429583531
  H           5.56354806273783      1.26636508453700     -0.70522079989485
  H          -4.62959530426100     -0.81114568115333     -1.98208076421325
  H          -3.40678539062482      0.40152407217014     -2.32427491939136
  H          -3.03321923346522     -1.30445249757469     -2.50703228434665
  H          -6.73498699293894     -0.83862033179235      1.32124887148057
  H          -5.35337681385609     -2.86313134018765      1.24441096827730
  H          -4.52825750606426     -1.58451020408215      2.09766466386854
  H           6.62262152460437     -0.42817223277253      0.74178386158753
  H           5.33527775575258      0.38274113581249      1.60609835065726
  H           3.83128477321659      1.76447847135056     -2.36977343597162
  H           2.16782484192211      1.22042192571210     -2.18890002432794
  H           3.37421876379739      3.42524413222577     -0.73163680954142
  H           4.73165209217334      2.86889936923756      0.24613424596764
  H          -5.24678020210219      0.59926853603804      2.75154499470580
  H          -5.09387782213242      2.18710637118704      2.00213649316164
  H          -6.65961725277594      1.37753940206470      2.02894354923540
  H          -7.03076910429959      1.36121658498181     -0.41308938872939
  H          -5.63323560619189      2.43395222686824     -0.45807742339142
  H          -5.72071947029274      1.03564214851491     -1.53312306639746
  H           4.94676938356861     -1.36157866135955      3.23736897949472
  H           4.77658279200096     -3.05087281969086      2.74746020323116
  H           6.33498978146986     -2.23573507762096      2.57983751060977
  H           4.84870681318192     -3.68342808493165      0.31066431059002
  H           5.09430380034132     -2.47379965217255     -0.94677907909529
  H           6.40943443394801     -2.87248628812576      0.15309668216565
