79
Coordinates from ORCA-job 490365 E -1284.218851352108
  O          -5.84294878894783      1.58817027020229      0.86531761962320
  O           4.04457698039829      2.42414324201459     -1.47223680048244
  C          -0.45783660862265     -1.01854045665725      0.27976648111567
  C           0.97315039422970     -1.01312505926662     -0.42787911455549
  C          -1.07904780947621      0.40373500994296      0.08273893141207
  C           1.86134128630992      0.03650950070876      0.31793719060072
  C          -2.60257065747924      0.58221229730542      0.40939420095260
  C           3.30137161663077     -0.04269797083010     -0.17202952957620
  C           3.92880504946876     -1.43324935775023      0.05368944948305
  C          -3.37534494324642     -0.53824341428168     -0.33971467879329
  C          -1.38101067582399     -2.07707935573720     -0.35549040710002
  C           1.63295317897543     -2.41936549247810     -0.37988755626211
  C          -0.19333136321979      1.47866051652414      0.72856245613633
  C           1.25370900320937      1.43791617035240      0.23277848156312
  C           3.12506342044286     -2.45049867921140     -0.75396472535004
  C          -2.84840919146212     -1.92254755059419      0.03513658004914
  C           4.33528773603480      0.94163305757499      0.38465604933925
  C          -4.93772167049335     -0.43962826744380     -0.32742564119484
  C          -3.05107693060768      1.96102730569312     -0.18109862263124
  C          -0.31427665309323     -1.38511501093449      1.77573454429482
  C           0.87077979838670     -0.64946649999533     -1.92660466516342
  C           5.36020689433405     -1.17080162419724     -0.43260158678238
  C           5.71207891329341      0.22224233749417      0.13822181452233
  C          -2.87559505113669      0.58514752055022      1.92318482520227
  C          -5.41166906516822      1.04935662828505     -0.38991398775279
  C          -4.33737925224511      1.91866414238140     -1.02011985835821
  C           3.97734503602735     -1.84845776211586      1.53405536833990
  C          -5.44704376163035     -1.10578158796348     -1.61967640489103
  C          -5.59429847474084     -1.16030129946138      0.85658527012437
  C           4.34284753317772      2.29382316923600     -0.30584456331518
  C           4.79933934112917      3.46677263690838      0.53008282848791
  H          -5.12648953368842      2.09842839951819      1.25324462558031
  H          -1.04709129153355      0.57987094741261     -0.99409220731193
  H           1.86908982651482     -0.23730347962836      1.37535879054933
  H           3.30637583123508      0.12983005629649     -1.25105768876624
  H          -3.09417995731830     -0.39843291030529     -1.39101226067224
  H          -1.32541565489153     -2.02011505804849     -1.44369092169495
  H          -1.03145823637587     -3.07478751990313     -0.07949932251783
  H           1.52637848511530     -2.85777427783605      0.61041330768217
  H           1.09131317669152     -3.08299230995632     -1.05701155504293
  H          -0.60639133462587      2.47004666575855      0.53485380974194
  H          -0.19755743478649      1.36423967815499      1.81397572273376
  H           1.85010350899458      2.12813406215574      0.83653632165577
  H           1.31473398133351      1.81152587990895     -0.79084893323948
  H           3.25459258957749     -2.23627275427321     -1.81804872209480
  H           3.50963478749890     -3.46281128826105     -0.59549791102895
  H          -2.99059208257551     -2.11049074002924      1.10032082901910
  H          -3.42493096433137     -2.69380779922131     -0.47938079732315
  H           4.19485360892041      1.09835222643065      1.45665860039647
  H          -3.16323003310312      2.68375748204792      0.63275188280115
  H          -2.26299616158005      2.37216391484302     -0.81334746263339
  H          -0.01269388943883     -0.54964535702904      2.40137681994830
  H          -1.25229829472935     -1.76007131949321      2.17598000166586
  H           0.41550185850501     -2.17854343497639      1.92181135665246
  H           0.55030732164562      0.37122497155725     -2.11198376156745
  H           1.83526737756796     -0.76272534773182     -2.41627502982185
  H           0.17991750775981     -1.31302772392107     -2.44431249188906
  H           6.06969266063562     -1.93755370638068     -0.11513799098317
  H           5.37331596863683     -1.14134011223479     -1.52461058890124
  H           6.33926981873718      0.78507380936043     -0.55375645396544
  H           6.26508145460943      0.14052550454204      1.07375079853271
  H          -2.26159987807261      1.33716276227096      2.41977990154909
  H          -3.91487798858581      0.82019758136811      2.13812677539697
  H          -2.66718058759356     -0.37043092973314      2.39423797741668
  H          -6.31213084603000      1.07553511925898     -1.00822533298848
  H          -4.71925017885378      2.93209684594819     -1.16541697893701
  H          -4.11504913778955      1.52760613693625     -2.01524340230146
  H           4.52898910347161     -1.13160134949794      2.14346811261109
  H           2.98843831999878     -1.95465312455878      1.97613762660521
  H           4.48280490351865     -2.81282558073322      1.62443591310944
  H          -6.53834711498141     -1.14375553458031     -1.62728593266560
  H          -5.12359388965010     -0.55503029569390     -2.50628818378494
  H          -5.07927002029260     -2.12830040841803     -1.71351610277297
  H          -5.23213350973204     -0.80822171440498      1.81836557632206
  H          -6.67301405449211     -0.99702247427745      0.83979435296248
  H          -5.41846034978633     -2.23508037977865      0.79613162014583
  H           4.07233788644096      3.64999458122681      1.32633939980975
  H           5.75027192499346      3.23653710793524      1.01786427113911
  H           4.89975823778105      4.35811778171899     -0.08524131016057
