84
Coordinates from ORCA-job 490367 E -1623.226976769739
  O           6.72572447609347     -1.11155899367248     -0.26089209098292
  O           5.18952979162474     -2.99841847892006      0.93625396145635
  O          -3.75963194280916     -1.26573750148483     -1.98947591088926
  O           6.71253316391375      0.91495327746351     -2.10084952089208
  O          -4.29933353453515      3.05610035653999      1.03571747841116
  O          -3.95247798506924      1.29164239627033      2.30808814700375
  C           0.41048230788639      1.07719236852004      0.09032561772988
  C           1.13910256319853     -0.22012815267806      0.55188460619798
  C           2.67327101140022     -0.11770866900019      0.88620887675276
  C          -0.97507206058493      0.65180769004143     -0.57838294493652
  C           3.34988526707885      0.56893695343553     -0.33922286741823
  C           1.27778786592276      1.83209895751395     -0.93606656673920
  C          -1.75367863840189     -0.26848148568235      0.36532757021134
  C           2.74560383176427      1.96127581033659     -0.54049210735650
  C           4.90606565062048      0.50280210209988     -0.41942587387017
  C          -3.26770184271759     -0.43981298775427      0.24755007856618
  C           0.31987157564274     -0.90907837788521      1.64227951958584
  C           3.21208109429561     -1.56064884546028      0.99298070807861
  C          -1.81586567252613      1.92026404906112     -0.86856417789319
  C          -3.99592202563838      0.88570994556183     -0.09272177257640
  C          -3.26359350709149      1.61823322806579     -1.22631890791449
  C           0.15132624754035      2.00855775718703      1.29410905615553
  C           5.30066292445284     -0.97893451016376     -0.25551821711189
  C          -1.14330726501773     -0.92321147401613      1.35067861864935
  C           2.96824652906141      0.59284104962969      2.22408838632325
  C           4.72981598942451     -1.63590154297788      0.98456882155394
  C          -3.80944233880852     -1.63004790207050     -0.59465496874789
  C          -0.77347762062724     -0.08695707360625     -1.92196192252137
  C          -5.47361338608306      0.61731913104785     -0.49012578061594
  C          -5.28707381294503     -1.89204749759132     -0.15263831264538
  C           5.31890182275842      0.92232593143349     -1.85665343669785
  C           5.63492524053780      1.41289296023759      0.57714677198985
  C          -6.02471943757771     -0.59539630468067      0.24801708518556
  C          -4.04933339843721      1.73126595965800      1.19605841961307
  C          -2.98006992582656     -2.89506244745790     -0.39651701134879
  C          -6.08107775028131     -2.66024309749875     -1.21060515770944
  H           6.91302949589199     -2.03375904377343     -0.04115773266054
  H           5.03832276293904     -3.41146741776549      1.79240716262680
  H          -3.97440841645628     -2.04424991353597     -2.51388557114235
  H           7.07687030506185      0.10959205079172     -1.70430041794886
  H          -4.32968201465040      3.27809265154412      0.09593557717680
  H           1.12123362504373     -0.89094908216951     -0.30957158818337
  H           3.01430866496211     -0.02605363481016     -1.20016161943731
  H           1.25705461201287      1.31276980499931     -1.89400143538085
  H           0.85310094677650      2.82316100382210     -1.11029330192314
  H           2.85576015117273      2.56921274536407      0.35835628520719
  H           3.26488104619119      2.50192502979942     -1.33057229678823
  H          -3.58344595878851     -0.69395601296334      1.25851799458763
  H           0.65824034713879     -1.94057880541235      1.77547389398247
  H           0.46833444082051     -0.42954452447383      2.61526070400758
  H           2.83905478488096     -2.03878239033526      1.90243287488256
  H           2.84869342585280     -2.15511684702829      0.14939175978603
  H          -1.81042559539785      2.57613070577505      0.00000499128004
  H          -1.34668923685838      2.47656148394468     -1.68206330075357
  H          -3.78431433892025      2.54730611373818     -1.49365915737633
  H          -3.32825531074125      0.99440823476068     -2.11448581523171
  H          -0.66022193951671      1.64669020707822      1.92370226132410
  H           1.03270705334462      2.10578253868459      1.91834151835875
  H          -0.10711662534454      3.01383032517118      0.96402812997600
  H           4.89218419328204     -1.52688267106689     -1.11733245132606
  H          -1.74668243332552     -1.51687961018961      2.03084450321719
  H           2.23048557133822      0.32774160620649      2.97922644598860
  H           3.93650820306159      0.30104624798326      2.62233523140651
  H           2.98021083086788      1.67568197409354      2.14111677213794
  H           5.15923153114089     -1.15447595247304      1.86716239836238
  H          -0.04639258610055     -0.89357621676249     -1.83699963934858
  H          -1.70755269933151     -0.53221034884867     -2.25127782982615
  H          -0.43736929505506      0.59229561615152     -2.70578731446887
  H          -6.08268105981397      1.50043175898706     -0.28318026583819
  H          -5.51086219450447      0.44821017851616     -1.56635909562361
  H          -5.22156780536820     -2.52463828685029      0.73672923546959
  H           4.99495806896456      1.94288795216717     -2.05531269347632
  H           4.79615423440937      0.26523904092367     -2.56779277708472
  H           5.54986511589686      1.07207365306509      1.60537106199318
  H           6.69223331987934      1.46206280095229      0.32809227437453
  H           5.23361649337881      2.42575879996176      0.52521488385513
  H          -5.93582479519274     -0.42727348505143      1.32325114135749
  H          -7.09172118123977     -0.70424063345879      0.04212517073418
  H          -2.92383192553732     -3.17238659685322      0.65582934278847
  H          -3.43207750064084     -3.73031759765496     -0.93696238487641
  H          -1.96637322801687     -2.75106488004011     -0.76424383293497
  H          -7.04340638229927     -2.97180775208511     -0.80165557255078
  H          -6.28189740906796     -2.03601211281149     -2.08374526579098
  H          -5.56772550037980     -3.56431228957034     -1.54677842950615
