29
Coordinates from ORCA-job 49775370 E -765.541227901099
  O          -0.47591088130831      2.25945009874424     -0.29436826530020
  O           2.55125905700595     -2.54484701444306     -0.64502066002855
  O           1.76284351584703      2.59917988680786     -0.16260523477123
  O          -2.87099894390840     -1.82947027752518      0.42529727824333
  O          -3.93376558194356      0.03878358801371     -0.10133615062585
  C           0.88277528034892      0.47816988349261      0.69247733937154
  C          -0.28549431167593     -0.51858191897537      0.48751567013826
  C           2.12254356695723     -0.42900198723103      0.57309605579017
  C           1.78110593757708     -1.35513295818048     -0.60533029457769
  C           0.25402491708607     -1.57738960280949     -0.51874743715563
  C           0.81573795892594      1.60606586764063     -0.33324790606564
  C          -1.56262494748271      0.17533233058358      0.10779886152152
  C           3.50055057582954      0.20852219349940      0.47515499411150
  C          -1.56182796164539      1.48214689058780     -0.19846683983170
  C          -2.88114199095801     -0.49817430594428      0.12514712414931
  H           2.41613854300650     -3.02982758086176      0.17810916885975
  H           1.71727517899309      2.92667562483771      0.74489979434330
  H          -1.96986798867445     -2.15217135799811      0.54389535541118
  H           0.81928056801636      0.94266958155611      1.68178046864738
  H          -0.43464082519784     -1.00609514247976      1.45720021427059
  H           2.10534853209517     -1.06012756152481      1.47319380920848
  H           2.03141736998290     -0.85269217645489     -1.54184884495845
  H           0.06276888363447     -2.59962824253009     -0.18214939663295
  H          -0.22114595413335     -1.47453027688508     -1.49395899498756
  H           0.94661532220726      1.23381146845799     -1.35229410035399
  H           3.71898952300533      0.82843463661490      1.34669050870303
  H           4.25750111271756     -0.57505555955064      0.41867642674352
  H           3.59336391422908      0.83754648555313     -0.40898181442678
  H          -2.48135737053752      2.01890542700436     -0.38973112979664
