32
Coordinates from ORCA-job 49775368 E -804.841573144905
  O           0.28637646787074      2.42385422819360     -0.19954183032897
  O           2.21460397143219     -2.91198056410567     -0.73469900559144
  O           2.54368921601895      2.27714679730156     -0.01516388840420
  O          -2.77605419817174     -1.11336411310753      0.37661407787585
  O          -3.57404950297293      0.90988675311456     -0.20904586741173
  C           1.21537461963944      0.34560659306808      0.70650130086322
  C          -0.12585149501601     -0.36963888539474      0.42142965443578
  C           2.23684375343569     -0.79853046134533      0.55722135479011
  C           1.74068168376659     -1.57358586872889     -0.67655588882792
  C           0.20306155297146     -1.43203783599184     -0.66055798623033
  C           1.41523863938891      1.51306404594975     -0.25417053549689
  C          -1.21810252548809      0.59840465275267      0.08208329259589
  C           3.72161231825819     -0.46860996914561      0.52029120977905
  C          -0.94150937379180      1.88995566647112     -0.15612746901268
  C          -2.63179187483596      0.19790215402323      0.05708201848146
  C          -4.12206270510349     -1.60509882999297      0.37190764730525
  H           1.85290745774992     -3.39606581009079      0.01725723248526
  H           2.56420814112938      2.52365694463923      0.91831108737293
  H           1.22433819542618      0.76140911735701      1.71998731164885
  H          -0.41201837608036     -0.89441257262184      1.33500323535874
  H           2.05822469292748     -1.45512937410934      1.42006878756067
  H           2.15392402778027     -1.11481086279750     -1.57741575917934
  H          -0.26575720480744     -2.38810168863591     -0.42747884543657
  H          -0.17702716756410     -1.12894657850994     -1.63633061736309
  H           1.49090941830470      1.17597435474967     -1.29076376602599
  H           4.04352138026073      0.04254420026605      1.42999585388251
  H           4.29423660055536     -1.39313476197860      0.43146616399894
  H           3.97280503140828      0.17183225352748     -0.32432185781236
  H          -1.72166521817295      2.61980522751853     -0.32734161911009
  H          -4.72885296238937     -1.06775346422790      1.10032030908512
  H          -4.56917150913261     -1.48638735895390     -0.61470303868544
  H          -4.05093805479763     -2.65715698919422      0.63552643739739
