48
Coordinates from ORCA-job 49856081 E -1189.417314600635
  O          -5.38597057593310     -0.06125642485001      0.05682711080548
  O          -1.94353516239225     -3.35449463741143     -0.49443133644819
  O           2.69539746707996     -2.43467294048596     -0.12051313149304
  O           4.95923464218925     -1.61974799790515      1.29748979139786
  O           6.78450185087811      2.44521698929788     -0.29662502030415
  C          -3.50917478748513      2.07834331601101      0.42843698663699
  C          -3.10505627319781      0.61612801737851      0.18590462270090
  C          -2.27395060183508      2.99018488888898      0.56515475832389
  C          -4.31751912226304      2.19807655014763      1.73147528509613
  C          -4.26554547775079      2.57710089165244     -0.78940401928248
  C          -1.78043094555029      0.21048363512177      0.12333726010486
  C          -4.06671742947274     -0.39507145261617      0.00465694453800
  C          -1.35724530208969     -1.10550092653732     -0.10057007770801
  C          -3.69772771743937     -1.71867328326790     -0.22158034896814
  C          -2.35746749278541     -2.08341674002087     -0.27602476689536
  C           0.04198791728689     -1.48333023126248     -0.15383133088233
  C          -5.47093785704928      3.12585110046235     -0.82147549076125
  C           1.11173304745792     -0.67690514990642     -0.05060412060463
  C           2.48260104201055     -1.23412388603042     -0.08691253775063
  C           3.60299793210404     -0.24398201974970     -0.09102061420161
  C          -2.90984529266205     -4.37625724796333     -0.66729813675050
  C           4.82748713815196     -0.49134657964246      0.56049601821047
  C           3.48474145954518      0.94916669437651     -0.80526401098973
  C           5.86864906964219      0.42831116591701      0.48132557143300
  C           4.51975054837142      1.86411929069473     -0.90933666258477
  C           5.71993820542048      1.59625604453457     -0.25534325313161
  H          -5.92354988316704     -0.84163353637978     -0.11825741033423
  H           5.82901387612451     -1.62882248555377      1.71338750324678
  H           6.56256814570575      3.21293025875445     -0.83578392476848
  H          -1.65303596809694      2.69568628145294      1.41343655273332
  H          -1.65811396712264      2.98185290447504     -0.33572036633668
  H          -2.60864195419189      4.01443023333610      0.72931986681921
  H          -3.71669620435807      1.83632614032590      2.56740953383766
  H          -4.57141178636442      3.24168503736088      1.92573357701859
  H          -5.23682857569249      1.61939729315868      1.69482437108354
  H          -3.70677355412261      2.48136411799045     -1.71747268320242
  H          -1.01079003742479      0.95322966826153      0.25928900521079
  H          -4.47633123692738     -2.45818582721688     -0.35184080749325
  H           0.24998096023026     -2.53764007687176     -0.28993783737337
  H          -5.89800300624229      3.47643221325181     -1.75253864435775
  H          -6.08206207596462      3.23572342081296      0.06495734468423
  H           1.00726118915792      0.39035946117315      0.09177490947442
  H          -3.54086311508252     -4.48113202263319      0.22023225409295
  H          -3.53861689305843     -4.18526821866230     -1.54201249941045
  H          -2.34789628960011     -5.29403507540576     -0.82067194913122
  H           2.55753325889151      1.15267830375642     -1.32438091108057
  H           6.80674232719998      0.24603597859164      0.99240366851182
  H           4.39976150787442      2.77114986318770     -1.48986504371602
