45
Coordinates from ORCA-job 503731 E -1150.136438747031
  O          -1.28703470139290     -1.44981130139447     -0.16937282421479
  O           2.30073173366460      1.31311243950555      0.96983891685435
  O           3.18667407115561     -3.27409913245844      0.12553230460564
  O          -3.03849071474984      2.34359070296088      0.40260355337711
  O          -7.30586640167037      0.51763101730494     -0.55604245952301
  C           0.47753599625141     -0.14231100385543      0.36658803352392
  C           2.73853676374370     -0.99268140309579      0.54840641980663
  C           1.83983008441234      0.06863514541644      0.61502495762078
  C           0.06052184763407     -1.43239589063800      0.02670329017373
  C           4.21092370508557     -0.77275421750017      0.81373617003096
  C          -0.71183901218720      0.66265643750501      0.38264467226978
  C          -1.75051321588628     -0.15689730658682      0.05392401593396
  C           2.25494055245802     -2.27020072828426      0.20003826253535
  C           0.91232174638249     -2.51693869640460     -0.06949362421608
  C          -3.17949333647178      0.02244053647505     -0.10247541555197
  C           4.95538741723366     -0.39865940388791     -0.43891285870247
  C          -3.81106077525531      1.26939572556110      0.07394727723406
  C           5.64573189409665      0.71749045610137     -0.68023732002592
  C          -3.99969859983776     -1.06136068208105     -0.44171289774770
  C          -5.18294328729337      1.40861523345335     -0.08213760665528
  C          -5.36895114138691     -0.93402912681796     -0.60023853250140
  C           2.29203233004929      2.27511146940558     -0.08600946763578
  C          -5.96494797578349      0.31069882479601     -0.41858656230164
  C           6.33114282841489      0.92802615391593     -2.00290741224060
  C           5.81970854333156      1.84624921135125      0.29667904493115
  H           2.74681592477972     -4.09973514504953     -0.10345765371355
  H          -3.59902166463365      3.12178582160201      0.49881299136428
  H          -7.73654834984209     -0.31297935049466     -0.78782094623851
  H           4.31869451231504     -0.00597328864826      1.57634461225636
  H           4.63324824664317     -1.69654844141368      1.21448052892997
  H          -0.79468069199023      1.70490079277405      0.62228525750934
  H           0.55260609745692     -3.50317062256533     -0.33403077447896
  H           4.90024904559786     -1.14139200586037     -1.23042228033654
  H          -3.53808816775246     -2.02755322075756     -0.58207405304902
  H          -5.65856265616990      2.37244797672709      0.05602346315891
  H          -5.97053326153828     -1.79631644729087     -0.86282766571538
  H           2.66249381501500      3.20451051416587      0.34176049387053
  H           2.95020573424165      1.95423930043315     -0.89747007978456
  H           1.28365212288450      2.42920918942367     -0.47700760142545
  H           5.95141467190495      1.82651543263300     -2.50137572359641
  H           7.40715643558437      1.07965494415436     -1.86712992321033
  H           6.18766235982006      0.07943291425057     -2.67199869911489
  H           5.22621023181494      1.72647530156147      1.19961142216004
  H           6.87097605311398      1.94360981731176      0.58709169271606
  H           5.53847218875578      2.79696705629567     -0.16748599888270
