17
Coordinates from ORCA-job 50591 E -438.974450816981
  O           2.41272129573083     -1.51371792021604     -0.00008704972569
  N           0.87021030078155      1.71374813362932     -0.00002379772756
  C           0.21282015560573     -0.43896650818483     -0.00003894980980
  C          -0.23556008916047      0.90526673089233     -0.00001613195892
  C           1.64015127940093     -0.38801892998361     -0.00006352312615
  C           2.01598664292456      0.92588280008658     -0.00005118793076
  C          -0.72053825802652     -1.48091777942058     -0.00002456024757
  C          -1.59339573175016      1.22134208210134      0.00001332218613
  C          -2.06577688248092     -1.16557280977406      0.00000755438892
  C          -2.49626036696055      0.17339702027064      0.00002604645212
  H           3.34411442321797     -1.26924384486374     -0.00014258422157
  H           0.86085132917211      2.71625341304371     -0.00001568302338
  H           2.99768790835738      1.36914040960627     -0.00005955844268
  H          -0.38752792959750     -2.51032663623630     -0.00003916968554
  H          -1.93078141970521      2.25045011317473      0.00003025295809
  H          -2.80341947051727     -1.95746362786412      0.00002265966480
  H          -3.55716318699248      0.38830135373837      0.00005336024955
