36
Coordinates from ORCA-job 50914217 E -844.357788764215
  O          -0.55824363227654     -0.11350152296093     -1.48729622278023
  O           0.74331034947536     -0.31319416143704      0.45299387165079
  O          -1.49431141269296     -1.07660240639151      1.92561578056308
  O          -2.88479847509306      1.41006188079468      1.59147485799974
  O          -3.07762938453050      1.44317100469998     -1.13792242999110
  O          -1.56977886471758     -2.89373675566527     -0.75913244226392
  C          -0.41146118859026     -0.76275450603140     -0.25058588709786
  C          -1.59031246640857     -0.41632424066765      0.66388119291151
  C          -1.71865488391346      1.08956639859432      0.83949390705504
  C          -1.84108041727356      1.76285346854198     -0.52471370582088
  C          -0.70480002533604      1.30599003499485     -1.42348587087144
  C          -0.31984190265966     -2.27382818871360     -0.53268201244700
  C           2.00723703342701     -0.52259069439381     -0.18206158495552
  C           3.03324599924582      0.36258735664435      0.49668028685698
  C           4.43027831188116      0.20061972594045     -0.09932751087125
  C           5.46714666712098      1.09238803885371      0.57847145281497
  H          -0.59783348121392     -0.91973615277898      2.25331568384309
  H          -2.94500038203578      0.76924873158238      2.31172646727383
  H          -3.75355861126467      1.51916913762035     -0.45089330556913
  H          -2.00250891377684     -3.01660311918260      0.09335797210943
  H          -2.49645129811620     -0.78644032134396      0.18872102074255
  H          -0.82586992766859      1.47346946419602      1.34567838718571
  H          -1.75332292297912      2.85041788920580     -0.39233951115209
  H           0.22787979969185      1.76407961389384     -1.07814578653061
  H          -0.89768263308496      1.62346997951441     -2.44650876360522
  H           0.20566247392881     -2.74144472345157      0.30473066843920
  H           0.26725955998343     -2.41621048499194     -1.43934739037121
  H           2.30046644423236     -1.57506659803691     -0.09837381803468
  H           1.92706802013531     -0.27846622821011     -1.24502339507967
  H           2.71090821757901      1.40494560626658      0.41288128639936
  H           3.05539288706617      0.12656227684068      1.56514178830116
  H           4.74047541442367     -0.84634405786778     -0.01915667558846
  H           4.39651894195134      0.42763542145923     -1.16985255255470
  H           5.54468745654519      0.86431843634067      1.64428510374547
  H           6.45604911356470      0.95952048562089      0.13625254396551
  H           5.19881313338008      2.14747221051988      0.48492759372756
