87
Coordinates from ORCA-job 51106 E -1995.770450178967
  O           5.05472766204136      2.78573569655083      1.25174690153011
  O           2.62160480554278      3.16086221823149      2.43668760130992
  O          -3.86622038368095      4.81343554631697      0.45405930824776
  O           1.32345272594193     -4.03761845404030      1.38894302156807
  O          -1.88183216987742      3.82627416250317      1.91223532239745
  O          -0.02134651143977     -6.36074824110212      1.63211808861057
  N           1.77370389367066      0.42188243931035     -3.36138376891588
  N          -3.14057874928803     -1.45674353923768     -0.90999858290912
  C           3.03304478894697      0.67566366726798     -2.65386991747496
  C          -2.56139015519082     -0.70220593283596      0.19939573023907
  C           2.85755795286269      1.37312340457098     -1.32102326930276
  C          -2.98072529481323      0.75738926416488      0.23735973817371
  C           0.66102403407186      1.28586043729749     -3.00530823204462
  C          -4.55115508786796     -1.14866190566369     -1.09850216192688
  C           0.38237163091350      1.19061379576972     -1.51728168112123
  C          -4.79964563171869      0.31885530981132     -1.45403018553702
  C           1.61088796445280      1.57814187402623     -0.74753302909675
  C          -4.02856636942325      1.23902701464807     -0.53995650880950
  C           3.79616703892323     -0.66542463881020     -2.45893831054267
  C          -2.82609123391105     -1.42015991459434      1.54141067436196
  C           3.99164128213867      1.78382084313004     -0.61827576822160
  C           1.96175640676985      0.34329554634567     -4.79517837442916
  C          -2.36050365527858     -1.37240940753766     -2.13263544046101
  C          -2.27602554142834      1.63908598211439      1.06304575947915
  C           3.15122323700164     -1.58462950636069     -1.45920610962379
  C          -2.12269213836452     -2.74802164826549      1.61278116521042
  C           1.51055651211607      2.17500173153910      0.51091042154016
  C          -4.35173650698774      2.60165453623902     -0.48792697524871
  C           3.90587980488093      2.36109814092930      0.63245623463062
  C           2.64138488873287      2.56317348303531      1.21541982992759
  C          -2.59189156467968      2.97832114369113      1.11247645776398
  C          -3.64474270673972      3.46775534505713      0.32372493178224
  C          -0.73475470279700     -2.79605685560911      1.51547157474050
  C           2.01400183441234     -2.32495077646593     -1.78835050473763
  C           3.64782518463062     -1.69465275665609     -0.16242563925003
  C          -2.80870322752742     -3.94982261471729      1.73505604750998
  C          -0.04595855881484     -3.99654511073436      1.50405171234245
  C           1.89630560454753     -3.21603597607052      0.43659659191520
  C           1.38686122587117     -3.13583907334331     -0.85522081584462
  C           3.03049643809004     -2.50108782639856      0.78597665230968
  C          -2.12450117033003     -5.16033996867254      1.76302092833391
  C          -0.74076538625552     -5.20116079427453      1.64076819501010
  C           5.42889882036549      2.04194989970534      2.41020885791309
  C           1.35954201000123      3.36152838595159      3.05477812918418
  C          -4.89978401930994      5.39794243099639     -0.32058110300656
  H          -2.24948536743347      4.71335915720188      1.79571989123762
  H          -0.62641515742183     -7.10546217408161      1.72035160562985
  H           3.67819599031990      1.31968214055013     -3.27620567538822
  H          -1.48059318999974     -0.71794769207219      0.04969748428975
  H           0.84544206295051      2.34061540971545     -3.28051345262307
  H          -0.20997637321099      0.95371093458812     -3.57529676839070
  H          -4.95179237010705     -1.80537562845194     -1.87344189632487
  H          -5.07969812893780     -1.39039259341615     -0.17304580313431
  H          -0.45937516852367      1.82850316884285     -1.24363549688854
  H           0.10077134378223      0.16129878694415     -1.28126341598566
  H          -4.50584515655102      0.50336223046520     -2.49318939786319
  H          -5.86910473364118      0.54069741131639     -1.39696438022501
  H           3.87680425649202     -1.16033973133104     -3.42872045217731
  H           4.81490350430030     -0.43686486330689     -2.14249905374064
  H          -2.48899660066723     -0.77118673942443      2.35329674426477
  H          -3.90071574868322     -1.55183024054946      1.67908921459692
  H           4.98157197961409      1.65853727693388     -1.03953671775707
  H           2.73075454107131     -0.38867165617163     -5.04298786346398
  H           1.03284974302618      0.02479832737325     -5.27141649875624
  H           2.26151737687587      1.30922292272730     -5.23913424782850
  H          -1.35626039231952     -1.75570468932310     -1.94799788947174
  H          -2.82457350399684     -1.99648305968813     -2.89886753561399
  H          -2.25984671021915     -0.35344543403888     -2.53870951604448
  H          -1.45472764418868      1.28111428793760      1.67135206465240
  H           0.52800635634455      2.35780597024347      0.91973121723339
  H          -5.16761674857821      2.96807422703415     -1.09622389934653
  H          -0.16001892301907     -1.88399911296428      1.41626340629789
  H           1.61021941904875     -2.25367248435286     -2.78862091966918
  H           4.52425600277691     -1.12542377577498      0.12012147885259
  H          -3.88923452704036     -3.94834194141859      1.80209154955747
  H           0.50509229510820     -3.70390058869274     -1.11963314114631
  H           3.41359761690911     -2.57775432900438      1.79470983317440
  H          -2.67342907289283     -6.09131403186574      1.85845855944404
  H           4.66929474911311      2.11316560983575      3.19006876539088
  H           5.59327588554266      0.99014127215659      2.15349430077173
  H           6.36114211810979      2.47694291970534      2.76616883275049
  H           1.56663043842726      3.84817726552183      4.00505693935391
  H           0.70872848149254      3.99510659520481      2.44932396367056
  H           0.85142052557891      2.40962580128382      3.23598030503389
  H          -5.87213944320264      4.96507641468788     -0.06927392966216
  H          -4.90017834401127      6.45764253259702     -0.07721778716489
  H          -4.71052736344013      5.26819374524867     -1.38985591506335
