51
Coordinates from ORCA-job 51340236 E -1564.392960872355
  O          -3.66305692938433      0.95541557048429      0.52008157025991
  O          -3.12100122444292     -1.94145141275049     -1.69542319434635
  O          -5.85694628108128     -1.19571653050650     -2.24202082362411
  O          -7.20770069283910      0.20380408444388     -0.15994265867655
  O          -4.94506038729523      2.52320864170289      2.61258522164882
  O          -1.22506223538441     -1.93310703790552      1.36283501017317
  O          -1.84971598289056      1.74387560342126     -1.53338743799120
  O           2.54053637501384      0.44925810581090     -0.34591301983443
  O           1.17152925669219     -2.60366509820486      1.97010022900754
  O           8.78735328125729      1.06801777421880     -0.54473027628224
  C          -3.71934597299884     -0.73987961184140     -1.24304770109946
  C          -5.21978150753615     -0.87966084376116     -1.02041505263030
  C          -3.06722412596815     -0.25794042611695      0.06622948371080
  C          -5.81220765367754      0.39042811740480     -0.41327951747052
  C          -5.03497535355311      0.82873674173956      0.83188832890962
  C          -1.58218955653307     -0.06815018542748     -0.04838690691664
  C          -5.52149765413746      2.16566314443654      1.36662823195890
  C          -0.72390083048713     -0.93192467265579      0.62865024793741
  C          -1.00800870683742      0.93899929734492     -0.83924267654462
  C           0.68359850539867     -0.78096940102816      0.55004525012295
  C           0.37118637011568      1.11668449191415     -0.93200389347164
  C           1.19414802390995      0.25461294405961     -0.23196112328050
  C           1.58537242091062     -1.66541858463243      1.25882166069549
  C           3.41511579425949     -0.35723093130902      0.30922488883025
  C           2.98716658437826     -1.37646886625915      1.09221064336458
  C           4.80872783733317      0.02159382779908      0.07001703383823
  C           5.86049151033329     -0.85001467124195      0.38485595485889
  C           5.12695839692544      1.26974406603810     -0.47463825529915
  C           7.17654160013391     -0.48966847262246      0.17560833537090
  C           6.44458137541513      1.64073497926598     -0.68535097213778
  C           7.47638839156588      0.76320338308627     -0.35978370796447
  H          -3.17385655580785     -2.60366291511725     -0.99501326983560
  H          -6.80248681941092     -1.04398031966675     -2.11428992518003
  H          -7.30705247197662     -0.48273769763933      0.51219699757554
  H          -5.21048568080989      1.87684047941404      3.27576170328814
  H          -0.43806696143608     -2.41005204781472      1.76158089519010
  H          -1.33974234716982      2.37721501771229     -2.05099825771878
  H           8.87089356373795      1.95161850129590     -0.92194418308890
  H          -3.54727677531364     -0.00812126665714     -2.03114676737695
  H          -5.37416247499594     -1.69957451082998     -0.29297845203841
  H          -3.23751703160910     -1.03397678843689      0.82320428505379
  H          -5.76313926926455      1.18761045085628     -1.15870199408883
  H          -5.16675812840253      0.05760598020470      1.61559400914975
  H          -6.61487069627602      2.14685967182638      1.41879916788476
  H          -5.22466153407069      2.94625448240569      0.66462590159174
  H           0.79907014870659      1.90161356640108     -1.54163272013160
  H           3.69306833130294     -1.98996266082952      1.62937588876232
  H           5.64776876061740     -1.83264009556932      0.78190103754239
  H           4.33450193725068      1.95865178492274     -0.72703743374252
  H           7.98556124779200     -1.16707806713554      0.41232108030079
  H           6.67268912853997      2.61522940774964     -1.10243983625522
