22
Coordinates from ORCA-job 51380903 E -913.768522807291
  S           0.91329693986850     -0.35910819805076     -0.10204622607030
  O           1.06392322913922     -0.19111377702946     -1.57697457893629
  O          -3.81308343362668     -0.19253296031841      0.27299041614108
  O          -2.02497942574169     -1.18869242435662      1.16312959213080
  N          -2.44369046445983      1.87580235462120     -0.59804328410938
  C          -1.64431825895871      0.68056222245166     -0.31367118172669
  C          -0.30538935524252      0.93076816914333      0.38311424146873
  C           2.36249012672916      0.48896679174375      0.68212360441996
  C          -2.49632655264445     -0.33315587512289      0.46529067399852
  C           3.58987847404195     -0.33421336168673      0.50431058968841
  C           4.50941324577036     -0.09630720244707     -0.42246192522344
  H          -3.92054736202465      0.62241699439727     -0.26296648484258
  H          -2.42388878010122      2.53513716685878      0.17201979740834
  H          -2.11725840336611      2.35197242399859     -1.42887270903266
  H          -1.43541261861474      0.21129698119213     -1.28100086391193
  H          -0.40176580075437      0.93004651623815      1.46932894380549
  H           0.11629867954748      1.87560814697006      0.03657500578806
  H           2.44213038073858      1.45773653433448      0.18606363962219
  H           2.10398009003725      0.62516352042868      1.73492328849873
  H           3.69207237700959     -1.19462692011056      1.15815033245625
  H           5.37414227671686     -0.73668917280654     -0.53714317547683
  H           4.42393263593600      0.74336906955094     -1.10191769609646
