37
Coordinates from ORCA-job 51380995 E -937.390177683301
  O           1.90300751326367      0.94714999399660     -0.58958133628405
  O           3.41375089297048     -0.17960688134453      1.54003272699888
  O          -0.85273323756161     -2.76188172674299     -0.18891441481700
  O          -5.43674978353298     -0.83431471814793      0.44775560830041
  N          -0.36072302648247      1.34699415419753     -0.26295112947596
  C           2.80226790511470     -0.20766727112563     -0.74108930003261
  C           3.97541082651374     -0.05680674184953      0.22930648131703
  C           1.92749219349062     -1.46867532601158     -0.54604080944374
  C           0.55474112401680     -0.88416422365361     -0.40244679954041
  C           0.65845785733000      0.47206459217176     -0.41247012268291
  C           4.64265626784554      1.30949517283454      0.07111366874968
  C           4.97990414343364     -1.18280297920626     -0.02727033472594
  C          -0.69590130940603     -1.54007773762733     -0.21893974374297
  C          -1.64489017579429      0.81189578958513     -0.08187942945388
  C          -1.83461482438347     -0.58723339120146     -0.06067346378113
  C          -0.13655904242160      2.78408756884896     -0.28044696718744
  C          -2.75163480803491      1.65077691185996      0.07875249694855
  C          -3.11548162445080     -1.10416352844900      0.11884484858504
  C          -4.20437834904564     -0.26632717118989      0.27603245687090
  C          -4.01633463811772      1.11681502883170      0.25549207551826
  H           4.12099312691367     -0.08970210324661      2.18763940113559
  H          -6.10134115030066     -0.14381001622113      0.54645902275075
  H           3.18917260552493     -0.14084654429578     -1.75908764823969
  H           2.00642201746263     -2.14927448373378     -1.39504996559240
  H           2.21663088084725     -2.01901997444686      0.35022615886666
  H           5.48882907558344      1.39279072478479      0.75760349169480
  H           5.02222021161987      1.44906211556123     -0.94324232742078
  H           3.93362418915398      2.10460827733684      0.29300710934038
  H           5.81949931652664     -1.09385305302918      0.66577303357250
  H           4.51859500344025     -2.15863451931602      0.12032626092761
  H           5.38036584553786     -1.13351762781689     -1.04187194817533
  H          -0.44292827394514      3.23082870573305      0.66734856319803
  H           0.92067864002453      2.96904359824557     -0.43251893541018
  H          -0.70001664529347      3.25037996455216     -1.09100578877950
  H          -2.63692681625108      2.72426990117010      0.06806971378508
  H          -3.23301317050403     -2.17921444031771      0.13286405910239
  H          -4.86337476108838      1.78278695926378      0.37874828712340
