86
Coordinates from ORCA-job 51398127 E -1400.947965367545
  O           5.44413667949623     -0.64593605829906     -0.02478879363393
  O           6.47258958137513     -2.32251823675635     -1.12949759848881
  C          -0.04207383378209      1.29296107372641      0.48233293883312
  C           0.73712287028749     -0.04319303257139      0.68926098120696
  C           2.22997854552340      0.04314830168256      1.17056268414421
  C          -1.34299661164377      0.97770870201970     -0.38466546963413
  C           3.04655000066379      1.10929492722160      0.36072373772471
  C           0.84476406721951      2.32623919110075     -0.23507857699484
  C          -2.12932441513785     -0.18296151730790      0.23845577794987
  C           2.26636725175200      2.43404075916292      0.31649251430359
  C           3.67667723731127      0.68839673714134     -1.01592890829808
  C          -3.55520346725595     -0.37633238190501     -0.25117523978967
  C          -4.38776603955595      0.93039639727826     -0.15179610151853
  C          -2.23012064376808      2.24901637986477     -0.47698074228929
  C          -0.12745201623405     -0.97900288662437      1.54057966325969
  C           2.88917424367410     -1.35335577340940      1.04129225137373
  C          -3.65189327951357      1.99959968282039     -0.96950678493626
  C          -0.47250321554973      1.88666441278033      1.84331715603966
  C           4.29209245242533     -0.71733945874029     -0.91310649366212
  C          -1.55483383008966     -1.02746107272471      1.09275757223004
  C           2.38155130378901      0.41028495780577      2.66373891793630
  C           3.31593518775700     -1.74335668661065     -0.36519733706495
  C          -1.00759073398179      0.55480577136145     -1.83490101186350
  C          -4.29308377847405     -1.57061193962077      0.35600865551324
  C          -5.77131488857032      0.68831708625140     -0.77949613308335
  C          -5.68974650737802     -1.81680467966777     -0.24980864487936
  C          -6.50888338434194     -0.51424751090643     -0.19490871285231
  C           4.79706435437542      1.68095291387313     -1.37475990024765
  C           2.72060313672499      0.64920908553294     -2.22141905796568
  C          -4.54620396044436      1.39030943612076      1.30428727951702
  C          -5.57110257507810     -2.31794401342681     -1.69691906803692
  C          -6.40148457865960     -2.89424341048198      0.57477983343842
  C           6.45773948200267     -1.50168575133785     -0.24675893518882
  C           7.56157152837924     -1.28949922199862      0.75524167403506
  H           0.79743785069837     -0.50745182970069     -0.29518349932523
  H           3.92969504669096      1.29641020345892      0.97812196372172
  H           0.89717990366129      2.09284046558149     -1.29118883628834
  H           0.37218129491179      3.30906103286209     -0.16890109693772
  H           2.22765089974311      2.84549086151826      1.32722415276084
  H           2.81654694085305      3.17201612549167     -0.27000097101180
  H          -3.47564463477746     -0.57803524470617     -1.32555490204795
  H          -2.29701138846807      2.72702950417839      0.49594371678626
  H          -1.73998676485879      2.96873044973963     -1.13645355367513
  H           0.26718917360541     -1.99687961404390      1.51207810708068
  H          -0.09559579792213     -0.68818589140558      2.59544820205628
  H           3.78358770742714     -1.35983337480033      1.66646590002068
  H           2.23353199458740     -2.11628663758481      1.45970568783623
  H          -3.64629722145141      1.69028694213261     -2.01884903925438
  H          -4.21275462694083      2.93912017447386     -0.93200220011299
  H           0.33698437217055      1.87189546186628      2.56294991537883
  H          -0.77525707310446      2.92707563515870      1.73716664754837
  H          -1.30515558787886      1.33923797836475      2.28125694910287
  H           4.66357406965365     -1.02239638694433     -1.89064080986135
  H          -2.13739431573346     -1.83830272047351      1.51196495935461
  H           1.80577478183339     -0.25575260430053      3.30614891692051
  H           3.43019716877139      0.30701901345135      2.94788745416735
  H           2.09143125155605      1.43072105849766      2.89497356575690
  H           3.79184343208742     -2.72546554327961     -0.35996328500084
  H           2.46225689550306     -1.81670742244602     -1.04160432823744
  H          -0.36965123102273     -0.32608659151479     -1.86741927647554
  H          -1.91830221006461      0.30035368023390     -2.37350054915285
  H          -0.52606488291402      1.35600467090847     -2.39390448539943
  H          -3.69707116712347     -2.47684366633234      0.22124129905720
  H          -4.39757804430147     -1.42967855701388      1.43551606681785
  H          -6.38090379185424      1.58947949692165     -0.66003704392097
  H          -5.64362211137501      0.55008662380339     -1.85738469063695
  H          -6.77220177979995     -0.31159708064434      0.84703050610238
  H          -7.45638086198953     -0.65938280591148     -0.72282087081249
  H           5.51689481284580      1.78376387427005     -0.56419328942757
  H           5.33444272545943      1.33792612400609     -2.26239227137050
  H           4.39131352067901      2.66698757577958     -1.60033224542967
  H           1.83352517484527      0.04703621895349     -2.05155751283161
  H           2.39845515980150      1.65158479169884     -2.49575407853850
  H           3.24337000625895      0.23408333446922     -3.08648538441619
  H          -5.14279966801293      0.69218391702535      1.88981618631092
  H          -3.58482749681027      1.48732856032730      1.80594939682603
  H          -5.04611942386792      2.36149744191696      1.33911851850980
  H          -4.98463871301915     -3.23897644247203     -1.73724884377471
  H          -6.56008558229475     -2.53225858151427     -2.10896201469949
  H          -5.09165873417536     -1.59314557171068     -2.35452696517408
  H          -6.50602999114202     -2.58361201469019      1.61709756936007
  H          -7.40157757910016     -3.09194327252206      0.18076403621338
  H          -5.84323365013886     -3.83376386301155      0.55833857797570
  H           7.18348172984024     -1.46519941696790      1.76367680809901
  H           8.38164982980972     -1.97003361963531      0.54387788790014
  H           7.91067542355030     -0.25686864681874      0.71277292507169
