62
Coordinates from ORCA-job 51407984 E -1534.141233891335
  O          -0.32342424283674     -0.86956641967737     -1.59654528715470
  O           0.32242824543060     -0.85792742820178      1.60337953826692
  O          -6.14878427020225     -0.65065727197604     -0.05734219814038
  O           3.06690855427433      2.77711096399088     -0.64447299020731
  O          -3.06439798772952      2.78445333053785      0.62427394213642
  O           6.14795815972254     -0.65594632713430      0.06208736314189
  O          -5.58627142068610      1.87921641488084      0.60500356329360
  O           5.58772938241202      1.86964840902762     -0.61893614713899
  C          -0.75841580860983     -2.38696133032691      0.18402884317697
  C           0.75621941656614     -2.38886962520886     -0.16586338781930
  C          -1.39871776809317     -1.57632939633468     -0.98940731733009
  C           1.39715551074149     -1.57006072592928      1.00156495496998
  C           0.79822806330676     -1.73849260919710     -1.54813426955629
  C          -0.79988340787976     -1.72635903017756      1.56144377624428
  C          -2.50533282085016     -0.63588449397095     -0.60615095714476
  C           2.50460660447863     -0.63346912673004      0.61129440163321
  C          -2.21851340870526      0.66645468701333     -0.21843796279444
  C           3.81101635461770     -1.11019819228928      0.57820905983540
  C          -3.81222674797414     -1.11098830555197     -0.56983682363629
  C           2.21904643040381      0.66627464431506      0.21413098188823
  C          -4.84415358806858     -0.27767095164038     -0.13595461311917
  C           3.24876090959477      1.49820684121997     -0.22316246099980
  C          -3.24746050864691      1.50262581880100      0.21241587807010
  C           4.84369254233437     -0.28110148413228      0.13811773649298
  C          -4.56815394948960      1.03937320351841      0.24892638798406
  C           4.56895706293786      1.03334760142532     -0.25645587342895
  C          -6.49625652278097     -1.96110449756569     -0.46598310931284
  C           1.74754611493650      3.29445920069234     -0.64242813033452
  C          -1.74463521654999      3.30074325131392      0.61773858663271
  C           6.49431275149284     -1.96334251909774      0.48131885372404
  C          -5.86783246866234      1.90649886171414      2.00308424554042
  C           5.87176964372565      1.88319214151656     -2.01671626997495
  H          -1.19168057964622     -3.38568800556958      0.21840310137553
  H           1.18867415513400     -3.38817321850059     -0.19281118252959
  H          -1.79333387464758     -2.30487946041816     -1.71234939476444
  H           1.79113601451109     -2.29351607883574      1.72994309122578
  H           0.71074214373237     -2.50920713701827     -2.32687186939636
  H           1.69180433515196     -1.14804269606074     -1.73591665666695
  H          -0.71286865022274     -2.49137780364988      2.34582640543632
  H          -1.69301874636360     -1.13390243195458      1.74493284318245
  H          -1.19612047254256      1.00313806526241     -0.25070342159421
  H           4.01581242805689     -2.12120001828566      0.89933316579155
  H          -4.01804645504880     -2.12408213381524     -0.88362077536865
  H           1.19701624571664      1.00425949796004      0.24415229212059
  H          -5.99861558972680     -2.71807074244583      0.14838915164887
  H          -7.57274677554001     -2.03976192905205     -0.33295205656224
  H          -6.24767488450638     -2.13058738815445     -1.51788638861774
  H           1.33190402382502      3.31442408189360      0.36899309306062
  H           1.82435460069631      4.31070296987450     -1.02200389364023
  H           1.08905453012948      2.71002087063255     -1.29162438327265
  H          -1.08634296759979      2.72082605347283      1.27117728515937
  H          -1.32936758282078      3.31257264283762     -0.39395969474703
  H          -1.82050368615710      4.31992027110356      0.98955886423547
  H           6.24515926053867     -2.12419907968994      1.53443747894869
  H           5.99638420144412     -2.72483160338140     -0.12719861335784
  H           7.57080045367611     -2.04385657753276      0.34937430847891
  H          -6.17203067413810      0.91697171382254      2.35617281862287
  H          -4.99637775595119      2.24881001628481      2.56788517072461
  H          -6.68829150605586      2.60873546162814      2.13989206585682
  H           5.00121520842506      2.21975889391356     -2.58636611556552
  H           6.69229709628595      2.58425999162747     -2.15900040093043
  H           6.17676489443317      0.89032013922623     -2.35953960379301
