46
Coordinates from ORCA-job 51522494 E -1113.304518011825
  O          -0.43781775600855     -2.67415561231480     -0.14027727900153
  O          -2.30646589398063     -0.58346572873030     -0.16081746140841
  O           1.75947460891336      1.30874748990673     -0.98339382574979
  O          -4.48599232631075      0.00432721437999     -0.04159509898341
  O           2.59897965441359      3.31235451324527     -1.45056479899766
  C          -1.01456221320047     -2.11833923409750     -1.36176402793849
  C          -2.46884852871344     -1.69070041892614     -1.09559815373576
  C          -0.07418503197570     -0.96084828734030     -1.78052693940680
  C           0.72527818219176     -0.75203287978461     -0.53107625445470
  C           0.45823876434260     -1.78749531642799      0.35195167652243
  C          -3.11553585351996     -1.23392135361876     -2.40140585258543
  C          -3.25947127760977     -2.81733585735066     -0.44118798767234
  C           1.56085819680774      0.26858569376090     -0.13182801492747
  C           1.03479018280186     -1.87270270327551      1.61644119254407
  C           2.15413889223528      0.23873042938793      1.14671477102187
  C          -3.33541340633734      0.16717818644883      0.27704925971760
  C          -2.84818666358080      1.21987184806711      1.24891995306241
  C           1.88479114596398     -0.84741330132130      1.99423149062338
  C          -1.52492587658823      1.90194875827911      0.87477010386144
  C           2.97500870971321      1.35236095397198      1.50819245418490
  C          -1.07151507515752      2.84025067871753      1.99227321335414
  C          -1.63474480454627      2.64354558418474     -0.45739538113057
  C           2.52645761270933      2.42617212031343     -0.64244825748826
  C           3.15290801180344      2.39105277280210      0.66545893702194
  H          -1.02670029614376     -2.92949826705243     -2.08821070399922
  H           0.56096820298635     -1.24517903319279     -2.62203678770823
  H          -0.62080682869305     -0.06643975069546     -2.07021740792126
  H          -4.16158976629135     -0.99023780724478     -2.24086428267781
  H          -2.61643896122125     -0.35612268084258     -2.81104920319164
  H          -3.05081635173798     -2.03780718300072     -3.13720020943314
  H          -2.80186993548241     -3.10489750033910      0.50316830036189
  H          -4.28532186476611     -2.50150586812469     -0.26703898832155
  H          -3.26867337268608     -3.68916235798756     -1.09820284294240
  H           0.80434471356922     -2.69628269819790      2.27679259013269
  H          -3.65244631874051      1.94972266445123      1.35505354956313
  H          -2.73777985786061      0.71940430884039      2.21711769716147
  H           2.34493375163287     -0.86427792571218      2.97441913770553
  H          -0.77439425100853      1.11831589531080      0.77067187902650
  H           3.44732073315399      1.35377647021098      2.48408528831910
  H          -0.94921852173150      2.30355039295819      2.93587133915094
  H          -0.11423865575910      3.30235506994328      1.74275588728655
  H          -1.79679531080669      3.64278667977129      2.15287361964719
  H          -2.36689280756692      3.45315310102466     -0.39157726276359
  H          -0.67637272390952      3.07841136568284     -0.74501883956590
  H          -1.94862144265955      1.97755126534390     -1.26350462748391
  H           3.75799561135577      3.24915830857484      0.91769114922007
