38
Coordinates from ORCA-job 517733 E -472.841603761859
  C           0.66956741101734     -0.39475374875562      0.46828352939687
  C          -0.52982708779036      0.27640559631573     -0.19572698518347
  C           2.01424827649775      0.09870536218910     -0.06180356007845
  C          -1.87414172315449     -0.21406640952441      0.33724315187239
  C           3.20166087591579     -0.58527349319298      0.61534193506819
  C          -3.06734081371532      0.45801655035853     -0.33853096316809
  C           4.59734772500074     -0.14511388338123      0.14187707570706
  C          -4.43969502380659      0.08114969927646      0.23354965290089
  C           4.87308201896424      1.33206320106933      0.43223453267147
  C           4.84182349233212     -0.46825091163372     -1.33399984565227
  C          -4.75310550687735     -1.40650356935360      0.06122092807228
  C          -5.53749546098583      0.93647296735596     -0.40112662982459
  H           0.62411031146800     -0.22756015615228      1.55059120502116
  H           0.60115135449899     -1.47951225961967      0.32705316789307
  H          -0.45970625364628      1.36140458228567     -0.05761152678436
  H          -0.48636445031446      0.10602979867344     -1.27761686643309
  H           2.05238540891043     -0.06963992628229     -1.14239329416773
  H           2.07544677340165      1.18184073028362      0.08148327671003
  H          -1.93144386243851     -1.29882912073218      0.20764567245242
  H          -1.92201984629868     -0.03289372514410      1.41746423308444
  H           3.13330722808247     -0.41739458515488      1.69597933366476
  H           3.11191636183556     -1.66770275541119      0.47072375919581
  H          -2.94595069132671      1.54430888057469     -0.26321657255298
  H          -3.05565167210164      0.22610543485487     -1.41078671522504
  H           5.31640834927390     -0.73088234334124      0.72626153171987
  H          -4.42132150577491      0.30002798793029      1.30864473092254
  H           4.69904430633185      1.56876837595200      1.48465373743627
  H           5.90891803236469      1.58750220272660      0.19817448952362
  H           4.23295944233633      1.98323262818902     -0.16716371236895
  H           4.64532839365538     -1.52170465335436     -1.54739478675578
  H           4.20081823757711      0.13001716105985     -1.98532853971756
  H           5.87692712486300     -0.25753321349593     -1.61172286638670
  H          -4.02978185961855     -2.04016046678317      0.57575229756429
  H          -5.74254901335469     -1.64501823846669      0.45749934449155
  H          -4.74467176271293     -1.68034729452603     -0.99820883787479
  H          -6.51621029249797      0.70769172102581      0.02646071612458
  H          -5.34612324790867      2.00181598602876     -0.25415780536666
  H          -5.59494805000339      0.75413988815589     -1.47827479395307
