28
Coordinates from ORCA-job 518986 E -466.813615464029
  C           0.57153245052775      0.00076562868204      0.04763120653615
  C          -0.12952256531337      1.21475526133414      0.02007635099732
  C          -0.13126025365536     -1.21206472018104      0.01379127006481
  C          -2.23686997586540      0.00310201478922     -0.07752095398133
  C          -1.52033990057649      1.19441060667857     -0.04278700653510
  C          -1.52204931510002     -1.18939592954546     -0.04892682591414
  C           2.06435127524617     -0.00037732320151      0.07965729759657
  C           0.59647070918668      2.53337767621729      0.07276026944446
  C           0.59285744745746     -2.53197145235754      0.05954910800704
  C          -3.74126703509964      0.00428567826755     -0.11390399795696
  C           2.75190653012970      0.00187067737354     -1.25848704368182
  C           2.73537259996564     -0.00309477181834      1.22727228623590
  H          -2.05695760802511      2.13664634469067     -0.06629420292186
  H          -2.06003026498759     -2.13071977719347     -0.07724284469047
  H           1.14523665577966      2.64579552356025      1.00971130153773
  H           1.32911197329409      2.62630091748461     -0.73176086179877
  H          -0.10442853356511      3.36336368972296     -0.01404448246622
  H           1.14365429651852     -2.64894075162064      0.99473675028692
  H          -0.10947086157955     -3.36056064787598     -0.02900388880722
  H           1.32346267885976     -2.62277207280842     -0.74708627107924
  H          -4.15728659751515      0.00286295576406      0.89796692828960
  H          -4.12566644098238      0.88931377229089     -0.62305860475378
  H          -4.12697659254852     -0.87840682658800     -0.62610439314676
  H           3.83720768555683      0.00049711563360     -1.15296550100815
  H           2.45749909990408     -0.87132716567394     -1.84685649110132
  H           2.45934352515278      0.87837167700356     -1.84287568134644
  H           3.81899449678113     -0.00391826966088      1.24987075717561
  H           2.22110752045342     -0.00460483096772      2.18043052501746
