32
Coordinates from ORCA-job 5192 E -692.765485620102
  O           6.85018394746906      0.71914109173756     -0.05955496183992
  O          -6.84573076662297     -0.72815667894543      0.00305115129648
  O           5.86062369047834     -1.26168281841324     -0.02911567286059
  O          -5.85676884330286      1.25289687412961     -0.03063819121715
  C           0.66333882137231     -0.38494751038308     -0.02435264028323
  C          -0.65905785916767      0.37707043738164     -0.03229633808976
  C           1.88768715413830      0.52661755251832     -0.04243752271469
  C          -1.88337973271097     -0.53451729154417     -0.01410761551945
  C           3.20521492577015     -0.24351174994639     -0.03453417669403
  C          -3.20099573484032      0.23545663865690     -0.02211285469213
  C           4.42025972578717      0.67443343708648     -0.05230937968411
  C          -4.41584819253094     -0.68275335151834     -0.00439350544592
  C           5.74147911730714     -0.07132673299299     -0.04542138996854
  C          -5.73727664378206      0.06258539156710     -0.01237019182206
  H           6.60090142318068      1.65224402098965     -0.07187763120912
  H          -6.59616863438484     -1.66116581557319      0.01691720877235
  H           0.70637515216435     -1.02883626714346      0.86111354693731
  H           0.70103410272331     -1.05635287282920     -0.88939312119816
  H          -0.69669819017914      1.04857376971469      0.83266942214021
  H          -0.70211244550497      1.02089217394076     -0.91781329642069
  H           1.84474337013907      1.17087318852323     -0.92829649623595
  H           1.85020204301639      1.19827274592435      0.82308341215422
  H          -1.84586208035510     -1.20626925608902     -0.87955537748611
  H          -1.84037616402574     -1.17868384962537      0.87181417498082
  H           3.25788902337089     -0.88646696730902      0.84721916353778
  H           3.25269719214356     -0.91332958019539     -0.89635051273111
  H          -3.24860476200947      0.90528318474307      0.83969477442649
  H          -3.25378232643356      0.87833663820848     -0.90390917725030
  H           4.39929919643738      1.32065253878898     -0.93777479690546
  H           4.40488278160528      1.34720025448603      0.81325908566694
  H          -4.39993273830320     -1.35583858307375     -0.86971504407532
  H          -4.39507855294957     -1.32865461281479      0.88129695443119
