26
Coordinates from ORCA-job 519324 E -390.561185936757
  C           0.20277931301767     -0.32208744070872     -0.86981084884261
  C           1.56900421043029     -0.99206511794502     -0.66123180012644
  C          -0.49299711303925      0.03894204581309      0.44924321808173
  C           2.56826263976070     -0.14707010578688      0.08739441907780
  C          -1.85631264404550      0.64768753870941      0.24529789780883
  C           2.95756808563237      1.15462463941368     -0.55499883926151
  C           3.07861447526299     -0.53472523145865      1.25357552194012
  C          -2.99126940250775     -0.21766029145010     -0.08001428606620
  C          -2.04231101309948      1.97023756141301      0.33638003165252
  C          -2.98019788480916     -1.54978323957391     -0.14706538128983
  H           0.31484791482039      0.58458672001791     -1.46961655329299
  H          -0.43151138198616     -0.99319997117366     -1.45186962872133
  H           1.42913533316567     -1.93789962614991     -0.13126096656799
  H           1.98313528585291     -1.23866255020348     -1.64580815302786
  H          -0.57117510829865     -0.85844637525933      1.07062381188928
  H           0.13277616862217      0.73891873353046      1.00490832556913
  H           3.73130298466589      1.66649001912562      0.01667139993021
  H           3.32876453006177      0.99096461772448     -1.57148475616565
  H           2.09921182940044      1.82694928250583     -0.64115936591062
  H           3.80245993937222      0.06989078085981      1.78697219795394
  H           2.79114722197461     -1.47311191240437      1.71250281618077
  H          -3.92558546824433      0.30282756585998     -0.27093961622461
  H          -3.01336068219089      2.41791170345708      0.16262861073343
  H          -1.23066048201918      2.64075435406914      0.58975122245096
  H          -3.87877202362124     -2.10361304080951     -0.38442480806338
  H          -2.08646672817848     -2.13274965957597      0.03452153029227
