10
Coordinates from ORCA-job 5257127 E -284.420037848674
  O          -1.53808004616814     -0.39662855737614     -0.18956278678883
  O          -0.17209225198684      1.35399650236767      0.07670969522636
  N           2.03271194940806     -0.07099473314439      0.19075906506189
  C           0.82745433972749     -0.82306381995637     -0.16849803171161
  C          -0.42945240018280      0.05104812678676     -0.09016819544320
  H           2.33013835085599     -0.25596158250853      1.13966243300311
  H           2.80899114086840     -0.26374263906086     -0.42627132198048
  H           0.80759360425180      1.42093605252073      0.13699495084828
  H           0.89723278407681     -1.16947827112412     -1.20091405572544
  H           0.65373252914922     -1.70563007850475      0.44989924750992
