51
Coordinates from ORCA-job 5276890 E -1676.549648587004
  O           2.87076265842684      0.56916551352590     -0.00394664471592
  O          -0.26108868652010     -1.23807776793948     -0.36902686187957
  O           4.07838400476759     -3.98070790174011     -0.71653788916644
  O           7.40881437503453     -0.58832852718560      0.06175380618075
  O          -0.19914631731114      3.40166873349773      2.85909667953385
  O          -2.35402394432636      3.19540550655952     -1.34169985370840
  O          -0.91265545966539     -2.11374589474286      1.60642949131568
  O          -2.19208425067660      4.17473523040173      1.17461793109592
  O          -4.15710770594061      0.93984691848581     -2.32758904642028
  O          -5.96086270056677     -1.48431112163080      1.39033905481635
  O          -6.33785585493091      0.24131559248844     -0.77397281937803
  C           1.09664552171218     -1.05819272147954      0.06242378926684
  C           1.55434219211515      0.29982812755766     -0.49121569292379
  C           1.98256666659273     -2.16754200717546     -0.46481372169259
  C           3.42711723483335     -1.75315304450351     -0.36750252110317
  C           0.63533420474643      1.41802690207102     -0.08688233395061
  C           3.79581922546260     -0.42723413912602     -0.13051100533440
  C           4.45575094713871     -2.68915760798230     -0.47394089750531
  C           5.12403870259441     -0.04034653684712      0.01628632476593
  C          -0.34537957385312      1.84602218752540     -0.97694791209284
  C           0.68458308183255      1.94097461092829      1.20124832625500
  C           5.79215622971792     -2.33347599637385     -0.33677893828435
  C           6.11547591919014     -1.00109643410309     -0.08446785472273
  C          -1.18169512200477     -1.60061398495520      0.55003555362288
  C          -0.25138054364100      2.88338637986022      1.60233336568717
  C          -1.31272252511073      2.74744944480171     -0.55693323205569
  C          -1.26156588722376      3.27555519284352      0.72565928302814
  C          -2.55754846448501     -1.22605606214370      0.12027293152283
  C          -3.63135032953918     -1.59059594120574      0.92782569826113
  C          -2.74489015260720     -0.42995385065916     -1.00572817999839
  C          -4.00208108044387      0.07270512386914     -1.27945341437395
  C          -4.90101125115336     -1.12737411899209      0.61545923421553
  C          -5.07637838161304     -0.25647231740284     -0.46134215096406
  H           4.85687698500783     -4.54785256242095     -0.72773198620775
  H           8.00155722156706     -1.34220719138354     -0.02972792968046
  H          -0.92790755567350      4.02856162241047      2.96010219589762
  H          -2.72463114983356      2.47504153143627     -1.87329912437594
  H          -2.81488124217979      4.32879129502803      0.45071243366050
  H          -5.10035411757561      1.13803290745935     -2.41793848182443
  H          -6.77537147300549     -1.26676162405078      0.91719710025969
  H          -6.57814738883430      0.93555035192402     -0.14521583410498
  H           1.11863491715396     -1.02500931310002      1.15143885919508
  H           1.59024690926015      0.23278341796328     -1.58513377099716
  H           1.80913787919460     -3.08522872308559      0.09833827932364
  H           1.70478264393512     -2.37900960385374     -1.50256624776864
  H           5.37178358192261      0.99445519674422      0.20053083487319
  H          -0.37516379866014      1.46244051872108     -1.98839876694538
  H           1.44947559974330      1.63026097627647      1.89866497367185
  H           6.57094032019883     -3.08383296024131     -0.42560781695858
  H          -3.47634525569714     -2.21387258088920      1.79634263491664
  H          -1.91344180907617     -0.16516374716570     -1.63396585223234
