22
Coordinates from ORCA-job 5280460 E -686.706975769083
  O          -1.94732413296698      1.03582609304874     -0.12746139027533
  O           3.18599121633104     -0.91951300180149      0.32725205173975
  O           2.74580850912526      1.76962433773016     -0.00096647916232
  O          -4.15651813628931      0.79254799111833     -0.18081566456992
  C          -0.47662784662796     -0.85166525142855      0.13198867208370
  C          -0.69338095543498      0.52255412975686     -0.02662838539957
  C           0.84654534260538     -1.30847837391897      0.22097573631335
  C           1.91550232006613     -0.44009982810460      0.16667005934409
  C           0.36827484433263      1.41531517965320     -0.08301217194399
  C           1.66864901509420      0.94280992827126      0.02101868751686
  C          -1.62956079873595     -1.69877149766772      0.18773546760923
  C          -2.87134952987988     -1.18422198801630      0.08729204152794
  C          -3.09425329817359      0.24097734701176     -0.08041136075384
  C           4.01947288414128     -0.86559442686060     -0.83426462408652
  H           2.45229316893007      2.68460905785507     -0.08243040239407
  H           1.04894260020117     -2.36450089058429      0.34676320930500
  H           0.16429562458175      2.47307947473543     -0.19642833916952
  H          -1.48567629083758     -2.76588522101079      0.31271053034223
  H          -3.76074180976157     -1.79555584116814      0.12555902103620
  H           4.97157648166023     -1.30458810477537     -0.54400043274840
  H           3.57877322216467     -1.45149516382526     -1.64654942784983
  H           4.17511756947398      0.16270304998129     -1.16339279846506
