53
Coordinates from ORCA-job 5280804 E -1714.806666712517
  O           0.90108953716289      2.19473696811893     -0.10543904216562
  O           0.61077014369184      0.42522644204130     -1.50589084993685
  O           4.87461835624894      2.48833030388042     -1.05723674368683
  O           3.86777758058346      3.93920292466293      1.18849052952371
  O           3.43051074728622      0.10395063259287     -1.75828664300214
  O          -0.25112638650565      3.62837790263636      2.19895355547622
  O          -1.83693137702583     -1.57973350772731      0.24891856926418
  O          -1.67840893983728      1.86418809796685     -1.90276923769843
  O          -4.26463265701587      2.27762990662921     -1.20001940256678
  O          -6.29971022582638     -1.11220210063326      1.49817238017742
  O           1.44388987286820     -4.51853384910670      2.48685177006825
  O           3.39768931281250     -4.92747479008073      0.69104321429786
  C           3.71728884288764      2.08269603294858     -0.35769883666803
  C           3.00110793719617      3.28229125449367      0.26134505891268
  C           2.81189420631603      1.29076168982182     -1.29931956504987
  C           1.66990226361964      2.85477111576538      0.88287512100299
  C           1.48770301857255      1.00921222668059     -0.58955294856117
  C           0.85269238263727      4.02724715149544      1.40051896573158
  C          -0.58534090006370      0.00305705106824     -0.97419098807313
  C          -0.66722889776385     -1.17645004488684     -0.32037320958187
  C          -1.75433605452575      0.86848529687251     -1.20782295114572
  C          -2.97591474870401      0.39816539021039     -0.53048327856408
  C          -2.95640659574898     -0.80824773057295      0.18228840258028
  C           0.41429918148805     -2.14438438379711     -0.09668614699627
  C          -4.19987075548922      1.10679878960875     -0.53298605514177
  C          -4.05399759242018     -1.32241994450810      0.85806175393361
  C           0.43176270392847     -2.89232114414206      1.08609994360801
  C           1.41437307527315     -2.34861010417477     -1.04952982169326
  C          -5.30785327134518      0.61075784347610      0.14022060740332
  C          -5.23188227734593     -0.59928282380035      0.83101341583267
  C           1.43811296266594     -3.80990766447252      1.32554784613422
  C           2.42294296163256     -3.27242940335298     -0.81088725470311
  C           2.44189790615368     -3.99868757882894      0.36949716464825
  H           5.31069013727580      3.16008852166650     -0.51694374330004
  H           4.05751186823865      3.33198398253584      1.91529405235773
  H           3.52188857684486     -0.50977935415490     -1.01873221792574
  H           0.07714021942086      3.30771225586795      3.04563018761545
  H          -5.14474364293410      2.65744517232671     -1.09234869252901
  H          -7.05776630026209     -0.52406370176684      1.40625649956898
  H           2.19922880269455     -5.12144010686185      2.47348762629440
  H           4.01875262919757     -5.03460011481753     -0.03746130880932
  H           3.99985224451063      1.40777438654315      0.47362986341126
  H           2.80642722602745      4.01957863933189     -0.52054302072896
  H           2.60165310786234      1.88661343721698     -2.18841767982763
  H           1.87549804261740      2.16362982122782      1.72181934172811
  H           1.65441266809527      0.32327719153864      0.26059297904165
  H           0.43220364239531      4.55543065222027      0.54416456022233
  H           1.51531931785465      4.71051267744047      1.94054678381209
  H          -3.98529589743299     -2.26176382789627      1.38549574194471
  H          -0.34008199495634     -2.76477623307230      1.83136251305841
  H           1.41300205526013     -1.78546476148288     -1.96854007762918
  H          -6.23771016007551      1.17047188927084      0.12640483378465
  H           3.19285214395814     -3.43611247802023     -1.55696956545021
