46
Coordinates from ORCA-job 5280372 E -1224.566039018277
  O           1.95469655761215      0.29531746139495     -0.42592852489331
  O           0.87079934263199     -1.50385487209148      0.45875152317557
  O           5.47754402640529     -0.55038795186612      1.46218841422378
  O           5.07084516769439      2.01469448392244      0.30464327268676
  O           3.10710646426648     -1.95495836073773      2.24602224774179
  O           1.49660014363583      2.75556640311533     -1.82926842376688
  O          -0.12718242932313     -0.93896703415361     -1.99901739983921
  O          -7.78529957044633     -0.00754314217432      0.61660410389984
  C           4.17484225550882     -0.02644230309742      1.25659082566129
  C           4.23132713754972      0.89877960233325      0.05196575041143
  C           3.14318591803651     -1.13764293163835      1.08231272572568
  C           2.82404595025914      1.40494945307619     -0.26683700215350
  C           1.80415274195349     -0.50427904864659      0.72487020950934
  C           2.77813230360821      2.20699505331829     -1.55584043508246
  C          -0.43015553752843     -1.05091109817214      0.32631415322127
  C          -0.93759980851094     -0.73178031296518     -0.94056584206143
  C          -1.23136541117233     -0.92296710922173      1.44887548126610
  C          -2.23859313929032     -0.24375844187283     -1.02995754702237
  C          -2.53124733031654     -0.45296038460866      1.34742346594311
  C          -3.05218650652987     -0.10169505544715      0.10000031366228
  C          -4.41552158488474      0.40165556168171     -0.08597833190598
  C          -0.39321826452310     -0.22758726613235     -3.19859835175633
  C          -5.39493918100974      0.44779991009856      0.81799880940464
  C          -6.76018009030488      0.98908692439268      0.53923847004947
  H           5.40566511505238     -1.25408989035540      2.11999135926804
  H           5.90884486195938      1.67328123448971      0.64077114552757
  H           2.62075095249335     -1.49396944951385      2.94060177928179
  H           1.29957595638935      3.42862280867882     -1.16877679773337
  H          -7.78188693208269     -0.38438663492425      1.50349516789766
  H           3.88100529487581      0.58228443613960      2.12731574913077
  H           4.60119359148805      0.32486638533650     -0.80804253428859
  H           3.43526323871824     -1.79661437990731      0.26337776092070
  H           2.48305446831793      2.03714102577578      0.56892233920713
  H           1.44561714167507      0.12957292484458      1.55831663249293
  H           3.00132405819570      1.53932916064918     -2.38926539792454
  H           3.54977305596734      2.98094326703885     -1.51477244805116
  H          -0.81383842978394     -1.19315488884447      2.41074559598847
  H          -2.64215882878182      0.02456679007199     -1.99601475005811
  H          -3.12959288054940     -0.34800831012131      2.24151591230246
  H          -4.63567818956617      0.76622582272317     -1.08639214706356
  H          -0.44288028477786      0.84684945779427     -3.00582040737461
  H           0.44513370283367     -0.43794459703891     -3.85844649158682
  H          -1.31651906885257     -0.56862952614526     -3.67614715403419
  H          -5.22820793981380      0.07251582409728      1.82486953361195
  H          -6.81175108973596      1.38324062697320     -0.47604046776701
  H          -6.98878594934374      1.81317937173005      1.22890271215164
