30
Coordinates from ORCA-job 5280443 E -953.650764983042
  O          -0.07359297671562      0.64794285986493     -0.01226909579411
  O          -4.16467662596315     -1.84000164896503     -0.03396979017626
  O          -1.73464548359492     -3.06476021499416     -0.07029121366673
  O          -4.12604860571029      2.94707933416332      0.05541919345706
  O           6.21000038645851      0.72645467774102      0.03135354812044
  C          -2.08248462697390     -0.69634688255328     -0.02424452125107
  C          -1.43338288847737      0.54798726186124     -0.00291050320652
  C           0.70947940785851     -0.46576903929614     -0.02549177209112
  C           2.13819392398472     -0.13842862468207     -0.01835058388841
  C          -1.27299587458699     -1.93230111418725     -0.04737441791260
  C           0.16491667529121     -1.69756210604783     -0.03329907851159
  C          -3.49601440223024     -0.66753313053884     -0.01596008498313
  C          -2.10174041849837      1.76389011498370      0.02313916036798
  C          -3.48532711064023      1.74837045049189      0.02989836984528
  C          -4.18273300199974      0.54007957773578      0.01059813003795
  C           3.10566245593639     -1.11134735145831     -0.30428774806835
  C           2.57481362276182      1.15556868911383      0.28023999459333
  C           4.45325514374789     -0.81103168620646     -0.28340759661358
  C           3.92539435177834      1.46581440226439      0.30500019664261
  C           4.87127737153263      0.48346039041937      0.02479644298142
  H          -5.11350254190833     -1.66608590521475     -0.02337723155365
  H          -5.08021139127766      2.81028627136356      0.05588597739983
  H           6.37410353632027      1.65071280830181      0.25172070728093
  H           0.79176120442320     -2.57547268068498     -0.01794001971832
  H          -1.55378693312366      2.69397282782386      0.03512944207837
  H          -5.26823567959222      0.53949938547847      0.01584794910320
  H           2.80082451407432     -2.11574505535743     -0.56261473832747
  H           1.84955681152517      1.92449889556100      0.50150051338329
  H           5.19668333816295     -1.56298392505225     -0.51038517528941
  H           4.24457481743678      2.47435841807059      0.54357894576064
