78
Coordinates from ORCA-job 5280794 E -1208.980376219240
  O           8.40025488451543     -0.40270049828367      0.46752335622373
  C          -0.24903267824007      0.61762537323522     -0.27373325041164
  C           0.44747568945539     -0.69364137128674      0.15187511174122
  C           1.89927197871844     -0.82280383415094     -0.28816688231001
  C           2.71422959336944      0.37577109318325      0.23438942196487
  C          -1.67316535992585      0.36160301982136      0.29440125853338
  C           0.54509348350296      1.76207538358985      0.36472954434791
  C           4.19562906873334      0.33508511195539     -0.24323130513039
  C          -0.53980384580218     -1.79347743817184     -0.23785272540388
  C           2.02221847265736      1.71959704866651     -0.04700990213663
  C          -1.92359157596089     -1.14509621339826     -0.00124365886564
  C           2.51192386494126     -2.12532707851184      0.22472074610287
  C          -0.30743818497169      0.77976455599593     -1.80048129404978
  C           4.76743340020709     -1.06977064517532     -0.07732757329271
  C          -2.84351812971158      1.24214282787113     -0.18331736399717
  C           5.02208166959267      1.30311950758545      0.64170534705721
  C           4.00494036575988     -2.13729098245299      0.14899257969728
  C           4.32438852888227      0.74972759879822     -1.72387758406456
  C           6.26528048019902     -1.20935739234090     -0.18706186210566
  C           6.53406614265957      1.18624292735061      0.45863928059847
  C           7.00444930694218     -0.23703841162832      0.72041365500769
  C          -2.64440551090094      2.73734899896322      0.10063306064026
  C          -4.12135233982162      0.78263381332828      0.46225267860863
  C          -5.20073345389584      0.35218077667211     -0.17880091736521
  C          -6.48682583986758     -0.07652766129721      0.46586181653869
  C          -6.78115608606495     -1.58686875474695      0.26993654772491
  C          -7.65760588479192      0.80265759301081     -0.00959235214602
  C          -5.74464482654631     -2.45102822157507      0.98779539604417
  C          -6.90183795034722     -2.00399833165476     -1.19775949423440
  C          -7.54728344759112      2.25431718923252      0.44793121830693
  H           8.88724862866582      0.21676084130705      1.02201777889761
  H           0.46677144480534     -0.66435458853627      1.25100120409722
  H           1.94289947914662     -0.83764421600223     -1.38191642338787
  H           2.74707062139471      0.25555033806559      1.32591674751300
  H          -1.59906376361796      0.49101251023608      1.38126084953289
  H           0.13585373556923      2.73659074591578      0.09658221082128
  H           0.46343921536295      1.67719386630540      1.45391707138360
  H          -0.40946558581117     -2.07086761003747     -1.28681533293790
  H          -0.40147259869570     -2.70237938446583      0.34792554126316
  H           2.55185516325329      2.52001343345268      0.47309590423005
  H           2.09225473077600      1.95528904810279     -1.10960159469318
  H          -2.45611971707540     -1.61554664019658      0.82442204663606
  H          -2.56638641950364     -1.25462958892399     -0.87637080119732
  H           2.19799564711109     -2.28944827796016      1.26503745879639
  H           2.11070477242212     -2.97495592176720     -0.33590836211653
  H          -0.75514544883477      1.73853989563320     -2.06724080139978
  H           0.68075331471500      0.74646210191286     -2.25569069337888
  H          -0.90620579800963     -0.00204766149072     -2.26822504173006
  H          -2.95377930068660      1.10914924770421     -1.26409945985327
  H           4.71165068779951      2.33038445140071      0.44422423210653
  H           4.77786675436909      1.09759355740562      1.68913997983604
  H           4.48994467759870     -3.10028643118187      0.28293614168156
  H           4.10978045975458      1.81015248034350     -1.86052347075618
  H           5.33017827202286      0.57143959815589     -2.10041057784417
  H           3.63956872811780      0.17676612296496     -2.34974607988149
  H           6.56529518081047     -2.23157390637025      0.04651149158073
  H           6.59754630703166     -1.00884485774252     -1.21150876502525
  H           6.83074292218793      1.46866104714081     -0.55509405514223
  H           7.03953938487988      1.87835786309876      1.14065136168202
  H           6.78526000514843     -0.49753869928558      1.76617938755404
  H          -2.44439580560791      2.91113947017846      1.16098398247831
  H          -1.81362440127092      3.15152318830558     -0.46854439015543
  H          -3.54413893605107      3.29422779133574     -0.16566452598116
  H          -4.14080847688913      0.83091695421580      1.55078513592016
  H          -5.17574473419018      0.31536504749458     -1.26636774881238
  H          -6.38290064889007      0.07827214032221      1.54647571226371
  H          -7.75255215458515     -1.76655801499361      0.74556457945920
  H          -7.71862719428867      0.77043993502536     -1.10131585043712
  H          -8.59206871488706      0.37170166918566      0.36371407586733
  H          -5.66766939165278     -2.18226062196259      2.04403272741876
  H          -6.01104516614321     -3.50859059033755      0.92781497416578
  H          -4.75663667498018     -2.32693473238514      0.54132891885689
  H          -7.18812686692744     -3.05527463187215     -1.27062800404814
  H          -7.65330245878082     -1.42005417149089     -1.73098670568298
  H          -5.94989502958643     -1.88887483456524     -1.72085183153755
  H          -7.51946057730324      2.31885073503645      1.53880041095323
  H          -6.63607026704015      2.71979322617956      0.06886747223153
  H          -8.39801881733034      2.84363209055746      0.10011526514729
