18
Coordinates from ORCA-job 5281426 E -572.197610981727
  O          -1.15650547793155      1.12534846578536     -0.00012079389936
  O           3.52757098619503      1.20301391674186      0.00011326992383
  O          -3.37636804774827      1.23338937571385      0.00008684212424
  C          -0.00042085424582     -0.98371296494107      0.00001764202324
  C           0.00398425573542      0.42094642992236     -0.00010391802323
  C           1.23276946840802     -1.64567349062908      0.00009857668372
  C           1.18465267437100      1.14558558839345     -0.00009490234072
  C          -1.27060425885919     -1.64284021001064      0.00010379796202
  C           2.39109864968620      0.45912836568894      0.00003129082960
  C           2.41875135235280     -0.94192216674057      0.00011492876517
  C          -2.41700593848279     -0.93556556794528      0.00009085586157
  C          -2.41302157468690      0.51685183698680     -0.00002995594429
  H           4.29912853308210      0.62484366885873      0.00021622450876
  H           1.24706987526156     -2.72844870898459      0.00019315342463
  H           1.16420706171475      2.22579598479407     -0.00013587790143
  H          -1.29379835755092     -2.72669460616604      0.00023224617234
  H           3.36803483810101     -1.46427079111017      0.00022431360904
  H          -3.39135718540245     -1.40111312635797      0.00020430622088
