19
Coordinates from ORCA-job 5281343 E -647.401676939675
  O           0.86042767564164      2.00133817136304     -0.00005760525082
  O          -0.26286398875225     -2.65613272738119     -0.00014708752714
  O          -3.62724831061993      0.74723295277743      0.00004159893628
  O           2.31422712268421     -1.81281367169950     -0.00035916469411
  C           0.39780481557335     -0.37499454268364     -0.00011560657128
  C          -0.02982268192674      0.96437590142972     -0.00005307674240
  C          -0.62187373031143     -1.35546911046896     -0.00010687989887
  C          -1.36205889325281      1.34782533562220      0.00000622646316
  C           1.84250994946043     -0.68689350022854     -0.00019751242709
  C          -1.96115768138197     -0.99000097561315     -0.00005655968374
  C          -2.32646559356955      0.35637586849961      0.00000036376507
  C           2.69691785209701      0.50201273306403     -0.00023275804936
  C           2.18413771876961      1.73452872389610     -0.00015647542732
  H          -1.05532737664215     -3.20626803528200     -0.00012093895632
  H          -4.20437085857264     -0.02485753288995      0.00002437023222
  H          -1.63361711427966      2.39256419982340      0.00004729416740
  H          -2.72622799950691     -1.75989203104626     -0.00006312793774
  H           3.76725444667546      0.35619338627608     -0.00032102438694
  H           2.76344264791435      2.64700985454158     -0.00017103601101
