53
Coordinates from ORCA-job 5281643 E -1714.824385062401
  O          -1.34704622329507      2.63836422190586      0.77675711241205
  O          -0.71792558825392      0.45418237895789      0.87159448602892
  O          -5.06387936206770      1.81521407774091     -0.65729054485886
  O          -3.99441948616446      3.55589577573194      1.18791022494322
  O          -2.93182598313139     -0.16413795286460     -0.91591389475279
  O           0.02776963033784      5.05206896365231      0.49739857334767
  O           1.86941946629246     -1.82114726611663     -0.15667165143589
  O           1.42590837669992      2.17495714233883      0.42108070271935
  O           4.03263051978061      2.43923585103398     -0.19145589175204
  O           6.36972858318996     -1.58098052942334     -1.32272892020821
  O          -1.11025939742754     -5.51473979893282     -1.39897205602635
  O          -3.20064648215350     -5.40168090309210      0.27794710954190
  C          -3.68120383786551      2.09803664134036     -0.73188362231366
  C          -3.38761813873750      3.47420869036104     -0.10422865375209
  C          -2.84224989083933      0.97971843079578     -0.09066629369757
  C          -1.88446152249772      3.69145041063646     -0.02966554013903
  C          -1.38703715438803      1.41876372056433      0.08776917908422
  C          -1.38057853142709      4.97847145930404      0.59186417040479
  C           0.50300634564035      0.00949720890548      0.44027478876650
  C           0.66341551648077     -1.31945235233659      0.22117889068649
  C           1.59818762512544      0.97459945121570      0.25742046631907
  C           2.86983247796454      0.36739322538451     -0.15155699332383
  C           2.94794575920340     -1.01883386647875     -0.34642153549203
  C          -0.36173858501299     -2.36569076957850      0.29894603195932
  C           4.06033549912240      1.10312842142981     -0.37066477379105
  C           4.10428627685497     -1.67834645178327     -0.73590502817069
  C          -0.26199313168377     -3.46844909216195     -0.55915402713043
  C          -1.43404987862507     -2.29623839283547      1.19363272698350
  C           5.22586006319468      0.46045754690545     -0.76027029814679
  C           5.24471987228496     -0.92420115423593     -0.94176720229165
  C          -1.22013222542625     -4.46391066566596     -0.54642653504320
  C          -2.39543267152609     -3.29909249342683      1.20840234486332
  C          -2.29945939214678     -4.37417062385812      0.34107235288128
  H          -5.35956672567612      2.15050271637994      0.20132314154572
  H          -3.38489308101079      3.14075344707526      1.81372327634336
  H          -2.55176792277116     -0.91511826456441     -0.44139239871496
  H           0.39743002123873      4.18436760556216      0.72686188046226
  H           4.90590851024473      2.80658116952869     -0.37385203916586
  H           7.09594124059431     -0.95720038321169     -1.43594318159237
  H          -1.87142306426209     -6.09677833229188     -1.27085537521212
  H          -3.93636901429159     -5.24346565548789      0.87938644578465
  H          -3.42477660209590      2.13056293100988     -1.79487955852921
  H          -3.86814332980586      4.24372468707705     -0.71112643258321
  H          -3.24081210585741      0.77377085927212      0.91156545804571
  H          -1.46261849980276      3.62285367431615     -1.04181342157491
  H          -0.89348785129284      1.51068571527465     -0.88720533196872
  H          -1.71908348180297      5.04162148584261      1.63291086621084
  H          -1.79021337657723      5.83469558932888      0.05191700494865
  H           4.10900720410998     -2.74936478014878     -0.87018830056730
  H           0.55845492801043     -3.55320779262831     -1.25631779080169
  H          -1.51073279112714     -1.47315070032484      1.88461156151155
  H           6.12773622798673      1.04117736733731     -0.92485716971698
  H          -3.22318681531366     -3.24384964476077      1.90613566695917
