26
Coordinates from ORCA-job 5281553 E -390.566247197239
  C          -0.59414998311480     -0.84624514429881     -1.17376091270414
  C          -2.49768012836552      0.12541812281462      0.20191167838712
  C          -1.86480367655622     -0.90675596044952     -0.35726973732422
  C           0.62236009288356     -0.93063748988935     -0.29881627702292
  C           1.66131963480628     -0.08267553120914     -0.22232862819016
  C          -3.74561404028206     -0.07474369726374      1.01541369426095
  C          -2.03663739803399      1.55092140973015      0.09508927734106
  C           1.81596145599340      1.14580999104016     -1.07425711533476
  C           2.71627847378127     -0.36458155971887      0.75061210602402
  C           3.81470691486311      0.36399222549282      0.96269108021831
  H          -0.59030428229113     -1.69397516598658     -1.86810159201697
  H          -0.57383618239040      0.05060047159525     -1.79036997348056
  H          -2.26994445822992     -1.90072698057221     -0.19008309969036
  H           0.63041378139071     -1.78292425139474      0.37604263236209
  H          -3.60700597215685      0.29232147290305      2.03757651480664
  H          -4.58264982506961      0.48990817062531      0.59207625667215
  H          -4.03214532867739     -1.12530585797904      1.06501581340705
  H          -1.82067790861902      1.95274148602784      1.09002835290639
  H          -1.13994037581841      1.66587563951717     -0.50868134245655
  H          -2.82360251100723      2.18052860653579     -0.33191512796881
  H           1.86782340329420      2.04381539881171     -0.45273666112116
  H           2.74572245539996      1.10153731353954     -1.64728837814504
  H           0.99876347903109      1.26979177707643     -1.78004599037112
  H           2.56479203933511     -1.25942979465181      1.34786298902402
  H           4.53961257145775      0.07321182909823      1.71130769676989
  H           4.02980176837611      1.26641651860574      0.40517974364705
