29
Coordinates from ORCA-job 5281708 E -878.426088870506
  O           1.38759703521809      1.72068472549840     -0.55161489302240
  O          -0.03180334626339     -1.87363718643535      0.76426638961167
  O           5.85620379821535      0.34861667419588     -0.24084712256390
  O          -6.12883177443296     -0.05988300630688      0.01632870725905
  C           1.81733265258717     -0.51738101577296      0.20511978446537
  C          -0.49813034955406      0.31594151255898     -0.04493175108434
  C           2.26619575688319      0.72610659362270     -0.24289680308106
  C           0.38235634348468     -0.79822499019903      0.35127942094483
  C          -1.96643580438711      0.18238150416900     -0.02234259689121
  C           0.06475078149228      1.47819518931052     -0.43591048322843
  C           2.78069590924942     -1.48770804022285      0.50637831842000
  C           3.61536446229833      1.02008792540689     -0.39197611360494
  C          -2.75035861487144      0.73079976040736     -1.04289499778734
  C          -2.61977923636186     -0.47980463111591      1.02030160459793
  C           4.54225963432222      0.03860797831888     -0.08626549116169
  C           4.12360590953988     -1.22344545968395      0.36506331978659
  C          -4.13274088009383      0.65083876799476     -1.01964775689802
  C          -4.00261670341723     -0.56633388648517      1.05244639304511
  C          -4.76520246647836      0.00106335039297      0.03511491214114
  H           6.40130700650079     -0.40892338464731      0.00125452050005
  H          -6.43980356316449     -0.55081621602597      0.78532394660641
  H          -0.50777366469662      2.35674058540238     -0.69620026423226
  H           2.43137797344815     -2.45085771657464      0.85261662409219
  H           3.93214950822012      1.99315756183992     -0.73862632354311
  H          -2.26866564308374      1.20880019303455     -1.88668576183383
  H          -2.03920831116193     -0.93623594056782      1.80712984983013
  H           4.86136096980085     -1.98222388247025      0.59990770010842
  H          -4.73143578465730      1.06968828145448     -1.81718766016157
  H          -4.49184159863620     -1.08201724709955      1.87180152768521
