39
Coordinates from ORCA-job 5281520 E -585.875154303568
  C          -2.43281997471063      0.02119288983004      0.06765400854606
  C          -1.87381858944004      1.47204644406639     -0.13884368911349
  C          -1.37495876630970     -0.93611147287517     -0.41742656162733
  C          -3.69433313998847     -0.12598673550154     -0.79727753226408
  C          -2.80184167916980     -0.20028885970040      1.53578652266632
  C          -0.56422868950121      1.72149219700716      0.54471721061695
  C           0.64225436861402      1.86935136000744     -0.00919654937950
  C           1.87829857671627      1.90596617602620      0.85916460094326
  C          -0.66434110029020     -1.80429851023134      0.29180046132862
  C           2.75802401727532      0.63267400426151      0.68909330254173
  C           0.57050566292886     -2.47162068787793     -0.25849081229123
  C           1.78080533823445     -1.53908640394850     -0.23462916961569
  C           1.87095702275019     -0.57332347371222      0.67865877819398
  C           0.90386913260637      1.89250588705240     -1.48760507352901
  C           2.76312247146138     -1.75423954997189     -1.34900795571577
  H          -1.79150942995493      1.64858074475311     -1.21208999267955
  H          -2.63322672979120      2.16779930114696      0.23503545782486
  H          -1.10633715217760     -0.79953851400685     -1.46496773639090
  H          -4.44169869030189      0.62323749131229     -0.52455843666633
  H          -3.45973994290903      0.00186016419321     -1.85648581317370
  H          -4.13820879009849     -1.11484178314768     -0.66771893214637
  H          -1.94167391525170     -0.08549298042615      2.19551574642463
  H          -3.56096022381620      0.52116204665824      1.84533178629456
  H          -3.20872735591257     -1.20187333919942      1.68725569069922
  H          -0.60351540401132      1.70739146139071      1.63044129239489
  H           2.48717383403034      2.78748826212579      0.63258997810704
  H           1.57496906790004      1.98438775885219      1.90547222911197
  H          -0.88139677701666     -1.95081736506202      1.34393227946910
  H           3.33798465390006      0.70191522583669     -0.23172208492413
  H           3.47930792465692      0.60503098484693      1.51246276213786
  H           0.79077187295542     -3.40498948228163      0.27022370922267
  H           0.39493479841161     -2.75342050342901     -1.30141058089202
  H           1.09685329369013     -0.54115406979187      1.43717135897464
  H           1.57020347396458      2.72075292242431     -1.74589440755003
  H           1.40444799513936      0.97180060348282     -1.80111447268394
  H          -0.00364501293831      1.99404362233961     -2.07864253759818
  H           3.62891620879640     -1.09773013272034     -1.28294938026575
  H           3.12839309972701     -2.78630927853958     -1.33775465096069
  H           2.28891754983124     -1.60560340519045     -2.32511080603068
