35
Coordinates from ORCA-job 5281654 E -1143.393333052298
  O          -0.67122427621799     -0.73721473938974     -0.30159116763201
  O           0.35216087998886      2.17760478889263      1.57518046357035
  O          -4.68207321585793      1.59277196963637      0.82567441366266
  O           4.87427523019967      0.88329974562489      1.33442443045558
  O          -2.19332560754070      2.49615391775270      1.57470912475007
  O          -4.75664141130428     -2.47739864399107     -1.69900868106891
  O           5.58214656356490     -1.32421812299603     -0.14755762738884
  C          -2.64187992800317      0.50072761040561      0.30927348477409
  C           0.16727680397663      0.15527760579429      0.31722148995393
  C          -2.01205755345767     -0.58918689014640     -0.31594128829295
  C           1.57035626703714     -0.22148464416792      0.19032568190723
  C          -0.37236516359238      1.23358811825692      0.93979773260369
  C          -1.81323404474112      1.48279484883139      0.98096978333229
  C          -4.05442732133954      0.55554092846082      0.23277323113060
  C          -2.71154801349100     -1.58507895614189     -0.98690724903496
  C           2.59433644005712      0.52462866582284      0.79370642027000
  C           1.93003948551485     -1.35338738651068     -0.55192733805339
  C          -4.08894087307729     -1.49545573946182     -1.03920608946227
  C          -4.76328513980432     -0.43026920319516     -0.43281801818182
  C           3.92187645122901      0.15672939781058      0.67182837139206
  C           3.25796732866200     -1.72284168182169     -0.67747123424012
  C           4.26530939538968     -0.98343195888841     -0.06800790080101
  C           5.74608758986274      1.65173122052771      0.50356849989175
  H          -0.33645474845178      2.79780244055727      1.90448815311243
  H          -5.63450660687371      1.50698799714350      0.69926954733192
  H          -5.70541313929531     -2.31018092308531     -1.66823391499160
  H           5.67177708828441     -2.13211371442377     -0.66573460401766
  H          -2.18792989896384     -2.40601089397491     -1.45276429834512
  H           2.36885437055225      1.40127796476161      1.37833796487858
  H           1.16808948196372     -1.94840040095836     -1.03067388397532
  H          -5.84585137423602     -0.37417756218929     -0.48263265172385
  H           3.51971565434568     -2.60609482242598     -1.25047110608361
  H           6.41938955170970      2.17984196877868      1.17569841032180
  H           6.32415456921417      1.01170898797108     -0.16517907226742
  H           5.17290516469554      2.37674510673953     -0.08240007777820
