39
Coordinates from ORCA-job 5281515 E -585.864608700082
  C          -2.47115474411081      0.02903159565589     -0.00493840797259
  C          -0.98641207471695      0.50017601456017      0.14920389547629
  C          -0.52529549030512     -0.89758409936848     -0.39221798348649
  C          -1.94332927404312     -1.42755873871749     -0.05775772341052
  C          -0.55118399642670      1.79339102094358     -0.53598473129014
  C          -3.38749546526149      0.37710085622591      1.15707545783463
  C          -3.11100381381870      0.43832981098152     -1.32993711675657
  C           0.67670881189896     -1.62904837421745      0.15902778477313
  C           0.76049824727718      2.39994497947385     -0.00497454670913
  C           1.83991885231282     -1.88494776757911     -0.78064783766604
  C           1.84698024270625      1.35701123896786      0.17010242014828
  C           2.89151187251745     -0.74210138864114     -0.76713382744189
  C           0.72857630892822     -2.04588275936027      1.42209060321648
  C           2.18500459051139      0.57223976527022     -0.85253140288997
  C           2.37000317804705      1.20991913616992      1.56944377984193
  H          -0.75795087040979      0.55081897842139      1.21793314264848
  H          -0.41923200280843     -0.81901203299669     -1.47569288991059
  H          -1.96990075327096     -1.90234699929923      0.92302523593561
  H          -2.40189313788683     -2.10029102626452     -0.78455057426872
  H          -0.46484914120413      1.61543730559799     -1.61091245748899
  H          -1.34393385087251      2.53994435305709     -0.41916465656147
  H          -2.95402818261319      0.05948409901970      2.10801710128299
  H          -3.56081972836134      1.45608555094424      1.21059002357746
  H          -4.36141642917149     -0.10937275674908      1.05166663439466
  H          -3.31649892759573      1.51046454256290     -1.36360720865162
  H          -2.47788041973969      0.19262282183126     -2.18432706047228
  H          -4.06104148712224     -0.08581695736805     -1.46118723105293
  H           1.08596089488169      3.20328886610138     -0.67322207018715
  H           0.56429464144993      2.87076864646901      0.96186168775824
  H           2.33482971832243     -2.82239036972803     -0.51725812060448
  H           1.45697144737378     -2.00154175798230     -1.79856114444354
  H           3.47439818011930     -0.81856971098185      0.15035967744743
  H           3.58303178911700     -0.88681036014414     -1.60222260800432
  H           1.59028882116739     -2.57848975801350      1.80635345451112
  H          -0.07723529319280     -1.86674619182433      2.12348962135959
  H           1.73131306889715      0.78303287811415     -1.81871089698297
  H           1.57122650933246      0.89294382156610      2.24677991847383
  H           3.18162331890244      0.49126213845181      1.65394857498994
  H           2.73048458916911      2.17643662884974      1.93571648258230
