39
Coordinates from ORCA-job 5281519 E -585.876612969627
  C          -1.20597467868392      1.23102059933935      1.09569801564982
  C          -1.67121924900957     -0.13035182129278      0.61100423578448
  C          -0.42056814383236      2.09241112579681      0.06248155395109
  C          -0.83468726369737     -1.33243284699068      1.04112184828123
  C           1.01854094401860      1.67125504405760     -0.08420927570940
  C           2.40668152736091     -1.34320637991704     -1.07831649575750
  C           2.69116163876022      0.18308783029234     -1.28382956694979
  C           1.56154352492951     -1.55268125604452      0.15206689490234
  C          -2.73635998978410     -0.26272865276292     -0.19460876911568
  C           0.23544295581486     -1.57259355698215      0.01357327136817
  C           1.42198878207962      0.96617990197569     -1.14292196401585
  C           1.89733867706345      2.02686230096581      1.08352417269300
  C           2.28849374683765     -1.52042522368421      1.46392511830329
  C          -3.57010263946107      0.89806048441374     -0.67047278116146
  C          -3.21630509472520     -1.57683989530697     -0.75183709670620
  H          -2.07094699338057      1.81155203597849      1.42171635220537
  H          -0.58977807283255      1.10204366569953      1.98713719987271
  H          -0.92803806510915      2.03781312625723     -0.90136649715044
  H          -0.46793232910680      3.13502479173781      0.39599252659466
  H          -0.39861927980772     -1.13562836818232      2.02076413391530
  H          -1.47074190078899     -2.21171004928687      1.15954581334428
  H           1.87542043612715     -1.71810039030971     -1.95562502261456
  H           3.36081783968856     -1.87472248226661     -1.02084411508564
  H           3.43907785154249      0.50850959002665     -0.56105038930002
  H           3.13237866011430      0.31634183437019     -2.27552761971135
  H          -0.14945247664063     -1.60322992005685     -1.00189419304776
  H           0.68514790331143      0.78328003597892     -1.92163597033566
  H           1.57417936891597      1.52310111561452      1.99845035542642
  H           2.94323626896392      1.77780321008450      0.92027680156939
  H           1.83653314229448      3.10137251108984      1.28161868911856
  H           1.61629740459242     -1.52173983238960      2.32021110662833
  H           2.94038615776111     -2.39553555848742      1.55160895689183
  H           2.93500350953211     -0.64263511303867      1.54076462185585
  H          -4.63305376082226      0.69205888051606     -0.51011656404183
  H          -3.33219827137524      1.83898744150145     -0.18146693440261
  H          -3.44429277160164      1.04501314170179     -1.74866865608260
  H          -4.24842019733619     -1.77144391362980     -0.44156604493106
  H          -3.22719389261070     -1.53966467562561     -1.84630649832412
  H          -2.60950926910271     -2.42913773114356     -0.45970721391260
