78
Coordinates from ORCA-job 5281330 E -1208.978779787097
  O           8.50869557601946     -0.30427569281679      0.48661063719320
  C          -0.16052343386182      0.54804994683760     -0.23996745306570
  C           0.56553590620141     -0.76888235447073      0.11287252162516
  C           2.02166937565593     -0.83734449396378     -0.32642714220797
  C           2.80566282847139      0.34789161572534      0.26922319110477
  C          -1.58051183652608      0.22529688205575      0.30417477017502
  C           0.60286493074070      1.67194298179020      0.46881453407418
  C           4.28936921562255      0.37052254122717     -0.20328235574834
  C          -0.39352726924040     -1.86790511703637     -0.34455333173386
  C           2.08244122727679      1.68918311582114      0.06376412085012
  C          -1.79424833124790     -1.26630711861330     -0.08346160694967
  C           2.66393319154756     -2.15290476596253      0.11219154509760
  C          -0.21646777066829      0.79776873581287     -1.75500144231385
  C           4.89507071048698     -1.02793400768369     -0.11506904999582
  C          -2.77035419450885      1.10510829386601     -0.12613985710866
  C           5.08897981987422      1.30699998696746      0.73881667810189
  C           4.15745186551363     -2.12473205220998      0.04468310634080
  C           4.41253120871014      0.87178519313751     -1.65761443200039
  C           6.39671023123981     -1.12439880877751     -0.22379199979276
  C           6.60414310060267      1.23713866768564      0.55690906930775
  C           7.10821902014446     -0.18686768597244      0.74093255033248
  C          -2.60686129702997      2.58655429331233      0.24014766122528
  C          -4.03599258522491      0.57798150295177      0.49145925275704
  C          -5.08927316664545      0.11819750084413     -0.17217137012022
  C          -6.34296830642406     -0.42192600844727      0.45398502340167
  C          -7.58583964296559      0.45612238013858      0.15182199038985
  C          -6.52187635036693     -1.89976010816373      0.05435506380320
  C          -7.94493657179954      0.51455332931338     -1.33449178628137
  C          -7.41553358182445      1.86462802541118      0.72243397418313
  C          -7.72680434154806     -2.59415201413061      0.68493239800096
  H           8.97817452531848      0.29470286144904      1.07753572489624
  H           0.58004856706547     -0.80260482218846      1.21199674174185
  H           2.06968276281717     -0.78699244799932     -1.41899327580428
  H           2.83808310700219      0.16468062406365      1.35202555712492
  H          -1.51352479740516      0.29110241550158      1.39729209281901
  H           0.17105627949423      2.65039910109591      0.25585483141090
  H           0.51859236059593      1.52143106411503      1.55074011385208
  H          -0.25004445876280     -2.08389671207065     -1.40623752374311
  H          -0.23692797931505     -2.80433368474921      0.19127296539887
  H           2.59025674514062      2.46983808678397      0.63335325945432
  H           2.15129268719557      1.98895894393619     -0.98267887544757
  H          -2.32561302605437     -1.79763848294259      0.70555721153890
  H          -2.42585754192533     -1.33669416245860     -0.97055883621877
  H           2.34975951038950     -2.38629907620627      1.13918700248425
  H           2.28599519325571     -2.97720373496258     -0.50014947301775
  H          -0.68676491801158      1.75928630207055     -1.96777027614580
  H           0.77416975449379      0.81563997021372     -2.20589548589147
  H          -0.79364534485338      0.03020241596361     -2.27105533804102
  H          -2.87679114142556      1.02900662508191     -1.21285933925906
  H           4.75424554216552      2.33592347543423      0.59770694706454
  H           4.84622640958023      1.03706139653658      1.77192724698180
  H           4.66491141055707     -3.08216740967457      0.12584604230485
  H           4.17257108656373      1.93278123944686     -1.73498471888294
  H           5.42364774929645      0.73939451225438     -2.03892692203815
  H           3.74394004938003      0.31877361328567     -2.31806293221228
  H           6.72084575347527     -2.15056386725414     -0.04623882514949
  H           6.72833402194477     -0.85855190626615     -1.23353584400785
  H           6.89741458972468      1.58301917558935     -0.43800540952429
  H           7.09018047702874      1.90196442542054      1.27906559076987
  H           6.89132790506086     -0.51099544730985      1.76929056665898
  H          -2.40910261015664      2.70624624699084      1.30842079861319
  H          -1.78749419867976      3.05187107161514     -0.30566989469166
  H          -3.52037949178672      3.13543562613427      0.00569147586578
  H          -4.06544942184323      0.59027511335588      1.58106673705563
  H          -5.04956938282922      0.10219465384623     -1.25966108688857
  H          -6.20623627289555     -0.39514676995960      1.54181749321512
  H          -8.42759188002750     -0.00540041150320      0.67695430945961
  H          -6.57941011926628     -1.97922599857844     -1.03537879107299
  H          -5.60972440621424     -2.42922408422398      0.34263829724271
  H          -8.85577305441545      1.09854472934398     -1.48220442752051
  H          -7.15343892821606      0.99248097661282     -1.91602660103090
  H          -8.11822956561968     -0.47730117161676     -1.75498884490558
  H          -7.17818810882520      1.83301182834156      1.78848355118418
  H          -6.60553702478412      2.39736504846031      0.22055971855127
  H          -8.33133750371224      2.44676775387826      0.59822033947154
  H          -7.71833050234843     -2.48541621457411      1.77277123675964
  H          -8.67200540220403     -2.18953212967962      0.31966021355915
  H          -7.71939293419376     -3.66218152725330      0.45856439536935
