27
Coordinates from ORCA-job 5281559 E -690.103113748242
  O          -0.69400000868637     -1.22736350679852      0.18360814176551
  O           3.59929771054199     -1.23064151626057     -0.37663681518296
  O           0.93898843480597     -2.75952217808729     -0.12213122871808
  C           0.54969940396684      0.70566149873386      0.13597849426952
  C          -0.79107157849787      0.15128163517219      0.27775733699333
  C          -3.28640103865175      0.08801824080461      0.57565741527808
  C           1.41927858291239     -0.36942958365788     -0.04121983179077
  C          -1.95975722704541      0.76279703648743      0.46653671995324
  C          -4.22912655086498      0.44948694426251     -0.58255146366949
  C           1.00845756412169      2.01591088705305      0.15367414522273
  C           0.63338095960579     -1.61080346047169     -0.01282398387710
  C           2.78937311050782     -0.16375706868150     -0.20773874209282
  C          -5.59966271856379     -0.20631286935247     -0.44363316107764
  C           2.37233469123811      2.21592516637345     -0.01249224427273
  C           3.25402254723413      1.15074503060684     -0.19058854712802
  H           4.51199861226783     -0.93515908467814     -0.47791313514993
  H          -3.14981286927236     -0.99354581839886      0.61386574526386
  H          -3.76306544658047      0.38375049706903      1.51785781483039
  H          -1.93675453222305      1.84555962167261      0.51945039713307
  H          -4.34161348307729      1.53732776993946     -0.63144276236827
  H          -3.76296439043724      0.14526259140437     -1.52367918325124
  H           0.33704951697535      2.85167992282153      0.29106526862163
  H          -6.09432759662624      0.10677223556570      0.47927614213559
  H          -6.25180589450849      0.05783126054764     -1.27811630438526
  H          -5.51237214944277     -1.29506801941731     -0.41961214277042
  H           2.76945665730459      3.22297343395850     -0.00465549426092
  H           4.31330369299561      1.34338333333145     -0.31740458147133
