42
Coordinates from ORCA-job 5281525 E -662.304052073413
  O          -2.78627582413379      2.14977671194371     -0.36441954084638
  C          -2.76090044241302      0.72390248157297     -0.13138111954701
  C          -1.30883770321289      0.31576945197787      0.17563988990843
  C          -1.05493743295115     -1.18458742167517      0.37556089548671
  C           0.36016804315247     -1.42538665003604      0.80443907075956
  C           1.37490891036480     -1.89771512778024      0.07941727939828
  C           2.76690303126019     -1.92916640919957      0.65645813987448
  C          -3.25651268811513      0.11272081645002     -1.43262028651035
  C          -3.64303599143807      0.42248132467155      1.05650232623722
  C           3.65038945538911     -0.75774399893465      0.15701224233522
  C           1.25843180310525     -2.36321540773587     -1.34469302893573
  C           3.13398978598178      0.57229582051906      0.61120594180568
  C           2.52944248488609      1.51481239301095     -0.11365774044539
  C          -4.67125569780193     -0.41178494229028      1.11031463877971
  C           2.01093712551654      2.77237833494787      0.52685743480017
  C           2.28502630491154      1.43033647213994     -1.59324903677983
  H          -2.46121645943941      2.59394055830138      0.42774053580271
  H          -0.68324749211749      0.68435781288050     -0.64005678965821
  H          -0.98736436957045      0.85109473635590      1.07690196501359
  H          -1.74162707884476     -1.56495606202158      1.13750915541628
  H          -1.28440231372360     -1.72103870753249     -0.54478260254520
  H           0.58422352169582     -1.10631628745422      1.81977974346448
  H           2.71389983886460     -1.88579186110386      1.74686631175848
  H           3.26152661747482     -2.87091759590986      0.39647466243133
  H          -3.30450346566647     -0.97348681175060     -1.37172351571954
  H          -4.24782042633806      0.49556330092619     -1.67285431965230
  H          -2.57721104151846      0.38546611234798     -2.24064128221073
  H          -3.36533705322786      0.96905688834577      1.95681750757046
  H           4.66086596513646     -0.90824503123630      0.55032823446250
  H           3.73564394628692     -0.80212808532197     -0.92897606646233
  H           1.54974724408292     -3.41504487683572     -1.42808460053242
  H           0.25276458749290     -2.25935578223078     -1.74626848689010
  H           1.93341599182567     -1.80160585223764     -1.99622820144832
  H           3.22859347938884      0.75294937603405      1.68008396683880
  H          -5.23547852756219     -0.54688215337754      2.02437960224157
  H          -4.99287482438593     -0.98894521461566      0.25286681832016
  H           2.19560111136067      2.78482018294924      1.60126392238963
  H           2.47697067678264      3.66021921275333      0.08731348878117
  H           0.93316592753747      2.87300039660615      0.36060110223284
  H           1.21083832637266      1.44256558716882     -1.80251544214359
  H           2.71006647389442      2.30069898592917     -2.10275784343106
  H           2.70356617969607      0.53567132144765     -2.04761697235094
