24
Coordinates from ORCA-job 5282714 E -463.669016800766
  O           4.29395105991982     -0.71481505874839     -0.66829844015528
  O           3.54586603795026      1.24685119381428      0.04430673802622
  C          -2.87791379433016     -0.27239467793284      0.26526777378469
  C          -1.47505806720559      0.25298497656427     -0.02638113884799
  C          -3.96412555956928      0.41959927563463     -0.55537267547844
  C          -0.39040644686837     -0.45476142794674      0.79911421180256
  C          -5.36444976990305     -0.11051022830307     -0.25891206230039
  C           0.96754754706709      0.10183916975155      0.54435270847330
  C           2.00636200334217     -0.57633258585484      0.06073643779430
  C           3.31236924922185      0.08896646258846     -0.17110771710917
  H           3.96544409797507     -1.61413972753351     -0.79117559950174
  H          -2.90988406833838     -1.35055935322422      0.07083989128500
  H          -3.09634511117858     -0.14945267686782      1.33221674018818
  H          -1.24939586388837      0.13218299908802     -1.09038088953118
  H          -1.43694149403456      1.32840566647299      0.17498926967997
  H          -3.93048111191920      1.49651526501122     -0.36037318182310
  H          -3.74299259007446      0.29666375519920     -1.62070489395898
  H          -0.62745008967101     -0.32999307507618      1.86255253666263
  H          -0.40641408692890     -1.52847502882832      0.59333837589729
  H          -5.62314284420977      0.02965145905275      0.79361576440663
  H          -6.11993174959530      0.40107073331220     -0.85811259759162
  H          -5.43447939840786     -1.17929028308376     -0.47636455816828
  H           1.12024588459303      1.15742439015233      0.75462184550462
  H           1.91062416605357     -1.63341122324224     -0.17141053903925
