48
Coordinates from ORCA-job 5282745 E -778.100614893569
  O          -4.59569614665852      1.66417990672849     -0.71602553927378
  O          -3.45355684423560      0.82390630894788      0.98179786653813
  C           0.78939743755346     -2.17523195317583     -0.35593057771104
  C          -0.65924154773258     -2.45226085245233      0.03433563047002
  C           1.79799248340674     -3.08952961169105      0.33328472876920
  C          -1.64217166775715     -1.47143774195548     -0.59924769224445
  C           3.25810189934184     -2.76103568238784     -0.02113937758230
  C          -3.09532165600416     -1.74631948252084     -0.22041133086846
  C           2.00105020656299      1.91281455817499      0.41266889845900
  C           3.35940719185792      2.05668717333875     -0.26830059514057
  C           0.93658596395941      2.86239174583676     -0.12915501437984
  C           4.37942160666566      0.99252690741354      0.17220791062810
  C           3.68430705453866     -1.40976830358153      0.46728868425671
  C          -0.41626376867461      2.71169667869523      0.56296869734814
  C          -4.06546847239986     -0.71041357028374     -0.77942864598479
  C           4.01878260569454     -0.38149048375613     -0.30411297944733
  C          -1.49913478227547      3.61422084304224     -0.01967710685353
  C          -3.98136306438301      0.63355792579705     -0.07579234286120
  H          -4.96054883220329      1.36822989361028     -1.55980905066923
  H           0.90035623111829     -2.26960184300806     -1.44263140159179
  H           1.02898399706385     -1.13574617772822     -0.11913878096663
  H          -0.92903055918359     -3.47736020383709     -0.24523260770901
  H          -0.75615654478905     -2.39709300545482      1.12411438578847
  H           1.66808671915611     -3.01823854082800      1.41893087523375
  H           1.59158777690288     -4.13115586327971      0.06716574403420
  H          -1.37576843406427     -0.45593081352688     -0.29365639969866
  H          -1.53936062275547     -1.50602200880505     -1.69048658418417
  H           3.90419887819306     -3.52924862310126      0.41752856510322
  H           3.39163053206397     -2.81808724231977     -1.10584156969284
  H          -3.38797414758106     -2.73521175739599     -0.58431148075588
  H          -3.19356435350377     -1.76317882984724      0.86708911165776
  H           1.64969702667452      0.88378398100482      0.29985288134634
  H           2.12049255440745      2.07335960242866      1.49043096072787
  H           3.23010127448134      1.99711500493648     -1.35499970185283
  H           3.76684478730556      3.05155072968501     -0.06314631323128
  H           1.28197774154359      3.89856355751784     -0.03303040715365
  H           0.81285286279407      2.68458016402660     -1.20427149146168
  H           5.36388984402188      1.26640322294212     -0.22262223809546
  H           4.46435978860733      0.99576351089696      1.26317289899464
  H           3.68011073157320     -1.27183413880539      1.54781747158798
  H          -0.74314318756088      1.66957410306153      0.49970936912999
  H          -0.30088234623660      2.92144399684796      1.63146303812783
  H          -3.89934346221053     -0.56834131670762     -1.85310577907008
  H          -5.10078970321446     -1.05267259825736     -0.67071172906962
  H           4.00370050187943     -0.51710077350939     -1.38504839543896
  H          -1.22521269942630      4.66875174263684      0.07290371305627
  H          -1.65110995881044      3.40646929382636     -1.08262676167200
  H          -2.45323389570710      3.46080456682023      0.48456046340345
