54
Coordinates from ORCA-job 5282756 E -856.710757146198
  O          -3.39079360153436      2.13280757892260     -1.11754036145545
  O          -3.13704688082822      1.96589080827287      1.07443628159723
  C          -0.00972936435026     -1.82319038408639     -1.33029593627017
  C           1.39715506640533     -2.24047973032190     -0.90430214393550
  C          -1.05265233174902     -1.95652629175407     -0.22439248725211
  C           2.47078493364231     -1.76461809870493     -1.88005926530348
  C          -2.47203340343128     -1.62026716249673     -0.67535782567895
  C           3.88245163510174     -2.28001450373593     -1.59192120813819
  C          -3.47618490091897     -1.54632286633393      0.47167750529935
  C           4.40030859791136     -1.98821319508661     -0.17316094362959
  C          -4.88550580487967     -1.16646252287726      0.02333292453008
  C           2.05228883935171      1.69285948667969      1.98305709590684
  C           1.19578677198315      1.67530400995239      0.71961336421841
  C           3.52192578038946      1.31990178741107      1.73738156584441
  C           4.29045373801189     -0.54609053459529      0.22025489308433
  C          -0.28761549386928      1.88568397944110      1.00981534944001
  C           3.68532444182316     -0.10870621849866      1.31872593375963
  C          -5.85899039974245     -1.02363725005118      1.18972108929084
  C          -1.12478868281129      1.96325253171229     -0.25938540214860
  C          -2.61703909876497      2.02126638682653     -0.00223848800454
  H          -2.83987960104144      2.15103621455381     -1.91081409856965
  H           0.01780942161891     -0.78013263426278     -1.66778191234177
  H          -0.31706122633014     -2.40882614664616     -2.20364789275278
  H           1.60508048099169     -1.83095454776609      0.08796172733349
  H           1.43966194676978     -3.33051068452042     -0.80066438596589
  H          -1.03195167087829     -2.97438260262908      0.18023038717738
  H          -0.77250189087425     -1.29919258734471      0.60667964976023
  H           2.19146246729410     -2.05944154655058     -2.89709855828052
  H           2.47980927029259     -0.66951108164607     -1.87361443037804
  H          -2.46853749960154     -0.66109865426780     -1.20524956554127
  H          -2.80469382428114     -2.36089937001898     -1.41126942410669
  H           3.91791989716876     -3.36163473070957     -1.75610433192679
  H           4.57061930420717     -1.83768778725801     -2.31941669025492
  H          -3.50484405300253     -2.51089689496984      0.99198015077376
  H          -3.12962555085205     -0.81177122782324      1.20557040679312
  H           3.86152805659990     -2.59864478886923      0.55582062111929
  H           5.44836224055599     -2.30506563062816     -0.12460909017319
  H          -4.84157811122678     -0.22170401323886     -0.52622139308313
  H          -5.25679575684690     -1.91942953922069     -0.68087866410176
  H           2.00175355462491      2.68504490902245      2.44129356318069
  H           1.62877436478527      0.99644594242747      2.71526021773283
  H           1.55570730562773      2.44966474635608      0.03182534303883
  H           1.33287591988472      0.72223890428776      0.20048030094337
  H           3.95622262818008      1.98229269414626      0.98225786105018
  H           4.07993357198961      1.49177341694568      2.66473421956763
  H           4.73182945934977      0.17869653837578     -0.46258394653412
  H          -0.66254215637718      1.06952677244348      1.63117705468338
  H          -0.43506536979303      2.79825935251217      1.59304649004697
  H           3.24167598433413     -0.84371487143124      1.98994871936112
  H          -5.52718161555424     -0.23866531630092      1.87275819157835
  H          -6.86122907343287     -0.76279876080014      0.84362526090803
  H          -5.93424593227316     -1.95447150024846      1.75857759487620
  H          -0.84248562178911      2.83941489829234     -0.85427284671275
  H          -0.93188076186080      1.09201971711216     -0.89395447035611
