52
Coordinates from ORCA-job 5282102 E -1639.579323974300
  O           1.19954285895192      1.93423842986997     -0.07063076140762
  O           0.75470135635880      0.14611208839512     -1.40536153869276
  O           5.20761603739844      1.73833933050612     -0.90264922152843
  O           4.30646437135745      3.40541020360319      1.23363216597393
  O           3.52322656065694     -0.50176059975193     -1.54228579249524
  O           0.15668331838304      3.59758949529064      2.13197679399626
  O          -1.98227562537340     -1.47675754240198      0.31649517374304
  O          -1.32624193143300      1.83418377737933     -1.94621913792206
  O          -3.86410842008071      2.58777232850122     -1.35961518118668
  O          -6.39557389829091     -0.42208395590759      1.36916576281390
  O           2.80512690001618     -5.41355265455739      1.04970802805423
  C           3.99152420817235      1.50111574260760     -0.22631759513295
  C           3.39691962124260      2.80196055536373      0.31138431374374
  C           3.03021362159457      0.76783156806170     -1.15854691302894
  C           2.01057411860448      2.55411891434987      0.90945548270557
  C           1.66233458327270      0.66886008507842     -0.48201031028243
  C           1.31483145606656      3.83346064670178      1.34557368703879
  C          -0.50259179680681     -0.10546078795546     -0.90669216945651
  C          -0.75066395232766     -1.24081804798443     -0.21674458497932
  C          -1.54733034242497      0.88403531871914     -1.21902110170825
  C          -2.84101162583908      0.59307479476294     -0.57494319645988
  C          -2.99516303844067     -0.57787511761464      0.17902456458607
  C           0.19234363579249     -2.32334201905895      0.08438095470935
  C          -3.96762666264486      1.44453351782312     -0.65098968229894
  C          -4.17119931719891     -0.92799244583079      0.82735642744240
  C           0.06670171342696     -3.04977528378332      1.27510601650427
  C           1.21626569652940     -2.67123927463845     -0.80156914414377
  C          -5.15162367142632      1.11353948020085     -0.00616312194485
  C          -5.24970007009637     -0.06881582646114      0.72814664116985
  C           0.94419039738623     -4.07215807252686      1.58697968626065
  C           2.09601650843960     -3.69713942001422     -0.49699627756477
  C           1.96661830825704     -4.39973787779571      0.69959509025887
  H           5.69985370163736      2.38563284135176     -0.38095614598114
  H           4.40440155553374      2.82114849287743      1.99653113418389
  H           3.63929827177598     -1.04603477115989     -0.75367620862828
  H           0.42979132963484      3.29798348739478      3.00548665319358
  H          -4.69412953705883      3.07565062378039     -1.30059248537307
  H          -7.07259031378263      0.24868797911741      1.22524524429857
  H           3.44802344371927     -5.56308657612939      0.34675269880818
  H           4.17135898498322      0.84265013499191      0.64645510909452
  H           3.30640320288541      3.51570516961438     -0.51028122696094
  H           2.91057991823026      1.33673430403133     -2.08139348190675
  H           2.11653411166302      1.88754396662644      1.78598199621610
  H           1.72351051496770      0.00821417596823      0.40143950159305
  H           0.97350853634375      4.35783646234857      0.45247397524799
  H           2.03536903742889      4.46900668804614      1.86936151713278
  H          -4.23802864827411     -1.84789627669985      1.38822464959498
  H          -0.72929854683188     -2.80429570283884      1.96388360427081
  H           1.33353819509848     -2.13249777846614     -1.72844072058234
  H          -6.00447792040616      1.78121566062962     -0.07651319848239
  H           0.84966043125915     -4.62859655771044      2.50959290941588
  H           2.87808081166842     -3.96032167470575     -1.20095458390294
