23
Coordinates from ORCA-job 5283324 E -388.419113078347
  O           3.80986355376609      1.40911238893362      0.02313443555918
  C          -1.78410473809528      0.03178701362377     -0.23545890709929
  C          -1.34249138969745     -1.38333082119894      0.12781321778881
  C          -3.20464313224700      0.35496107195941      0.22183564258295
  C           0.07873057316325     -1.72552551087603     -0.35062665802754
  C          -3.64191678657514      1.77025059912564     -0.14638464453891
  C           1.12844121098338     -0.90910780845034      0.32357400094588
  C           2.00736740946370     -0.10254486405412     -0.27691265419262
  C           2.98890243239418      0.65748781676398      0.49811731605404
  H          -1.08954006673743      0.75726905414456      0.20024947362673
  H          -1.71368502300197      0.16294886914173     -1.32155595379268
  H          -1.39970350591855     -1.51867381425519      1.21336434780381
  H          -2.03798146812474     -2.10622607247203     -0.30830079705748
  H          -3.89877894554518     -0.36961237871060     -0.21711020388152
  H          -3.27199547121404      0.22112495966340      1.30676578689475
  H           0.27207485521008     -2.78282964103021     -0.13614389387165
  H           0.14785157309846     -1.60068859617125     -1.43428491402213
  H          -2.98302375085145      2.51523552403530      0.30645097584525
  H          -3.61474652668760      1.92075358553713     -1.22848491868156
  H          -4.65910125784697      1.97501309299973      0.19277090462726
  H           1.16183297569491     -0.97983820781800      1.41051970921131
  H           2.02849785203559      0.02366052256471     -1.35438718137435
  H           2.93332762673317      0.49902521654374      1.59712391559975
