26
Coordinates from ORCA-job 5283335 E -427.722689434739
  O          -5.27090990613526     -0.74721534353651      0.20955599538683
  C           1.83177080739895      0.53408904881778      0.22661029968462
  C           3.00420635109234     -0.35743541350907     -0.17409989482386
  C           0.48802105926848      0.03315739030211     -0.29587840352686
  C           4.35104714961587      0.13948955301937      0.34701977159954
  C          -0.68524958603543      0.93297411189930      0.12017688179593
  C           5.51691913390052     -0.75832534114021     -0.05831706086254
  C          -1.98691681772804      0.46192216423456     -0.43124862377380
  C          -3.04942135216403      0.07954166903857      0.28223812393935
  C          -4.27312612953276     -0.38571288664717     -0.37205415899153
  H           1.79011882865872      0.60869888564313      1.31896018504515
  H           2.00646967919415      1.55142885718041     -0.14136522336898
  H           2.82794768495260     -1.37476076780924      0.19342463250226
  H           3.04544874411152     -0.43291482704512     -1.26678680240886
  H           0.52248359429150     -0.03448391263671     -1.38839004652890
  H           0.30539543329682     -0.98209116965274      0.06925633067895
  H           4.52583595762530      1.15611092000282     -0.02073169942855
  H           4.30829351118112      0.21454741470210      1.43870392057118
  H          -0.74024510403670      0.99350610605470      1.20990590363185
  H          -0.49137289517251      1.94803643148100     -0.24720254811124
  H           6.46565530454428     -0.38017347785288      0.32718645824782
  H           5.38273076085035     -1.77320558173171      0.32435802073100
  H           5.60212339012913     -0.82478973974610     -1.14589016780365
  H          -2.05750145941866      0.41239122224354     -1.51720909349867
  H          -3.05006883441967      0.09801782251410      1.36725095122993
  H          -4.23126130546862     -0.38859713582601     -1.48294975191695
