55
Coordinates from ORCA-job 5284421 E -894.780165039141
  O          -4.54527846348366      1.48088825153719     -0.60558918145354
  O          -3.38440874100073      0.01953415618403     -1.85712065453443
  C          -0.54358041230832     -2.42119162590251      0.62897571832626
  C           0.92218023020373     -1.99376935915736      0.63534495408783
  C          -1.52362552890046     -1.25765904434019      0.51603714699939
  C           1.87322181639890     -3.15893560387601      0.89798527479294
  C          -2.97685073960566     -1.71602396472164      0.40676661966760
  C           3.35770970833824     -2.78867254471430      0.77016244521737
  C          -3.98631406624940     -0.57232439770274      0.41216285777071
  C           0.95940172616339      2.15343020980472     -0.09305546941086
  C           0.04533109477387      2.27348632984634      1.12193237091653
  C           3.77412294242166     -2.54084993216173     -0.64875095187190
  C           2.43721075185108      1.98278634713744      0.27433144140952
  C          -1.41478505709257      2.52168686632534      0.75325627660661
  C           4.32377381953575     -1.44520894781463     -1.16590663505217
  C           4.65228029828370     -0.16346206638047     -0.44828834988385
  C          -3.91326414184035      0.30717963867558     -0.81320781847223
  C           3.32037130429989      1.94662731598357     -0.93578352046181
  C           4.24482983840129      1.04283272716909     -1.24884025319089
  C          -2.33931968601350      2.58929004277100      1.96453276607663
  C          -4.53932035914385      2.39649022901869     -1.71069465216247
  H          -0.70824212956702     -3.11423222046315     -0.20351600430848
  H          -0.76112628568501     -2.98756598117388      1.54224797306286
  H           1.17067203490304     -1.52385825950069     -0.32119594967788
  H           1.07721859170216     -1.22550230884495      1.40204515606278
  H          -1.41189595956258     -0.60761574757350      1.39073003508951
  H          -1.27008025046610     -0.65233195851039     -0.35749384464311
  H           1.68670428621630     -3.55444145247303      1.90134932138530
  H           1.64889036037065     -3.97446271010931      0.20127202342768
  H          -3.10334099848461     -2.30190401360522     -0.50663709823258
  H          -3.21034611285519     -2.38068969255718      1.24397391517858
  H           3.57514024378193     -1.92510297607453      1.40246105687501
  H           3.95747647556377     -3.61615915659933      1.16611552937698
  H          -5.00878003730599     -0.96222571400415      0.45205777202298
  H          -3.87181827771497      0.05888645061624      1.29538108286842
  H           0.64194659301467      1.30681222510251     -0.70945063268742
  H           0.84792438617669      3.04551782548026     -0.71942952663117
  H           0.11611514616174      1.35817651828019      1.72005642889357
  H           0.39989799750248      3.08578940202717      1.76700031432379
  H           3.59676345462728     -3.37626141877785     -1.32263196690339
  H           2.73419973579217      2.82453663579874      0.91289567878328
  H           2.55984093926768      1.08069693864157      0.87680818033286
  H          -1.48800890992349      3.45465497502456      0.18427961585851
  H          -1.74755389998017      1.73055689481530      0.07717645883993
  H           4.56857354094910     -1.45246224013145     -2.22476161410511
  H           4.20147040154785     -0.14668728769807      0.54189082233454
  H           5.73860921137583     -0.11758290817823     -0.29178352879059
  H           3.15953874006455      2.76075812110849     -1.63898060409731
  H           4.77331273421662      1.16538354975718     -2.19083545090572
  H          -2.28721092953600      1.66615807917821      2.54791004989053
  H          -2.05849446451198      3.41052035506494      2.62870019278483
  H          -3.37794924987388      2.73591020293193      1.66442801577526
  H          -5.08360421459028      3.27234071605046     -1.36831593140526
  H          -3.51644795652030      2.66120845358394     -1.97697283877147
  H          -5.02922153168993      1.95420307513176     -2.57754301738495
