19
Coordinates from ORCA-job 5284503 E -311.010013720146
  O           2.19828329361617      1.37607817118949     -0.09502288896949
  C           1.50191653419165     -0.96676947618780      0.25147756162517
  C          -2.32322103083953     -0.28047403253134     -0.22180215463516
  C           0.13686361289432     -0.77703669842381     -0.33248242148951
  C          -0.96226255785065     -0.50660458996221      0.36151952033133
  C           2.54015388279243      0.01187440466046     -0.29968106658268
  C          -2.85470924154926      1.12867777809218      0.06437526783419
  H           1.94351314187553      1.49499303945186      0.82669946211764
  H           1.45636608320734     -0.87396620671842      1.34255215634903
  H           1.86659874685618     -1.98019218955541      0.04203407242931
  H          -2.29081698802819     -0.45295626571064     -1.30081454726915
  H          -3.02423314124203     -1.01414630282759      0.19258145996998
  H           0.06770019493783     -0.85543941160928     -1.41616231515372
  H          -0.88818641192301     -0.41606667440230      1.44478277576041
  H           2.63008087591078     -0.10645679514639     -1.38159639122197
  H           3.52021060843649     -0.21338015059960      0.14040239341162
  H          -2.90704973593186      1.31697276593933      1.13950900731871
  H          -2.20025162463944      1.88418634565946     -0.37420654954750
  H          -3.85715324271474      1.26229728868200     -0.34719734227820
