20
Coordinates from ORCA-job 5311110 E -572.602261945258
  O           0.20894799281363     -1.58117342909498     -0.69902110243510
  O          -1.37639894761303      1.19777856623213      1.05078873469970
  O           2.35280984252189     -0.87294442481874      0.93707863631552
  O          -3.54475640760839      0.22028124118313     -0.51557579736444
  O           2.71821782754985      0.78541095313013     -1.13726030961667
  C           0.01134829906916     -0.69666333220669      0.38417027380285
  C          -1.18427700582505      0.19263301484734      0.04738064996063
  C           1.31887984553485      0.06526137901748      0.68839944117691
  C          -2.46205543870058     -0.61013043776325     -0.14240050386552
  C           1.73446070668003      0.95033447956617     -0.47282312302243
  H           1.10188817015513     -1.94513631564831     -0.61668232375633
  H          -1.60811862916018      0.76213154066605      1.88145884012258
  H           2.21770480857489     -1.25782515003788      1.81016086397086
  H          -3.51602564264049      1.00473865167898      0.04686408574601
  H          -0.23444029002690     -1.26699486624966      1.29876730167343
  H          -0.98532010022032      0.74204060253713     -0.87343613950405
  H           1.15028080920448      0.72765071883850      1.54583936243041
  H          -2.68295803112128     -1.15389285963669      0.79146479076117
  H          -2.32616138483425     -1.34627023524556     -0.93286360004900
  H           1.04101957564658      1.79336490300472     -0.66151008104652
