51
Coordinates from ORCA-job 5312435 E -817.398515181227
  O          -9.45460827586463     -0.31369218228081      0.72117712167442
  O          -8.22839972047248     -1.39121618601828     -0.77533530565483
  C          -2.14644926521230      1.34178918988981      0.11862004431683
  C          -3.31960395173238      0.50136137702830     -0.37893734173800
  C          -0.83563776049910      1.04282929789092     -0.60434152997044
  C           0.33727915125403      1.88127908174404     -0.10395577536237
  C          -4.63016011301598      0.80062751643883      0.34436477824655
  C           1.65362946440934      1.57056621904033     -0.82819619235390
  C          -5.79743447793394     -0.04458244747177     -0.15798372407343
  C           5.47199768018779      0.15503690799409      0.03989570909680
  C           5.90164825036374     -1.22236683341745      0.53736638172470
  C           4.23703615086827      0.70181098641837      0.76796649265474
  C           7.12519878455604     -1.77556337215825     -0.18858652241905
  C           2.78261750412676      2.44477426294514     -0.37220834437278
  C          -7.09873284935658      0.26335202680190      0.57080029752477
  C           3.86404517606698      2.08087757117816      0.31452530147271
  C           7.55548731065460     -3.15527177598984      0.30498972593712
  C           8.77972362894580     -3.69866369265309     -0.42711772516181
  C          -8.27451276532489     -0.56549533257633      0.08913875229371
  H          -9.33960590240101      0.37249371429701      1.39114394365838
  H          -2.38805388825521      2.40469794241691      0.00415052578658
  H          -2.01219432159832      1.17571753510865      1.19358150951648
  H          -3.45480777161688      0.66688001731436     -1.45351936029428
  H          -3.07900395130437     -0.56136911320236     -0.26428232220502
  H          -0.59485910179606     -0.02037504687016     -0.49114358822881
  H          -0.96841999485794      1.21040061444002     -1.67922468764721
  H           0.10259245906576      2.94489680990050     -0.22142712673485
  H           0.47679608541787      1.71770615372283      0.96946184060202
  H          -4.49454776476187      0.63564852698417      1.41967254195696
  H          -4.87136258063431      1.86382588318338      0.22887533501954
  H           1.89749085281977      0.51475821517581     -0.69466580992282
  H           1.50223675185859      1.71724141155390     -1.90413796064202
  H          -5.94257140766366      0.11589964819576     -1.22887046179281
  H          -5.56771928823621     -1.10648463455546     -0.04304895343443
  H           6.30180961059423      0.86072003892122      0.15608204740055
  H           5.25941826998246      0.11036360219667     -1.03303174682482
  H           6.11085460835716     -1.17013915100731      1.61203105501137
  H           5.06697643877654     -1.92395895629453      0.42512400006109
  H           3.40466329459214      0.00763725392735      0.63600488127640
  H           4.44921180106225      0.72630673102317      1.84336853084007
  H           6.91641420998111     -1.82588081332798     -1.26344513870859
  H           7.96077620948500     -1.07513613457275     -0.07552873607717
  H           2.67634449261144      3.49771894403545     -0.62241585324626
  H          -6.98326523398892      0.09510253579179      1.64809211793394
  H          -7.36016224524952      1.32205083203493      0.45674330570209
  H           4.58446454343401      2.85587620560343      0.56541084730105
  H           7.76348424943706     -3.10400525454740      1.37904371936584
  H           6.72005739487604     -3.85422494289822      0.19093059237619
  H           9.06453470069424     -4.68473883200715     -0.05478410982538
  H           8.58764120358227     -3.79017208507639     -1.49919519803471
  H           9.63884035371528     -3.03460826627163     -0.30220088402512
