20
Coordinates from ORCA-job 5315892 E -424.110774023858
  O           4.28918233679481      0.10627912667898     -0.67428863095383
  C          -0.40218420927088     -0.24759758646281      0.08756041934770
  C           1.00622638341734     -0.64386985610381      0.16657601004289
  C          -0.84378154672069      1.06416382367613      0.30704956551333
  C          -1.36047309521133     -1.21899587455019     -0.22305343873913
  C          -2.18709564445091      1.38820365417722      0.20834067090483
  C          -2.70747700292835     -0.89632285631283     -0.32231388426127
  C           2.06697169622928      0.14692299252087      0.33453212028907
  C          -3.12705216104240      0.41023585021547     -0.10821180562495
  C           3.47418824965924     -0.35259452484671      0.40953741676755
  H           4.33022340511804      1.06851419904360     -0.64314305977841
  H           1.18439909086623     -1.71186053084149      0.06650660340702
  H          -0.13162318509807      1.83695525745223      0.56480353658095
  H          -1.03842490947580     -2.23970988466401     -0.39234665599150
  H          -2.50649797310285      2.40801484833306      0.38278408997011
  H          -3.42868746069873     -1.66606329841078     -0.56624006411857
  H           1.94037071989319      1.22330257183314      0.42210174214136
  H          -4.17599479248559      0.66663602888392     -0.18264223086035
  H           3.49360456455290     -1.44110056736677      0.35016334700492
  H           3.92814453395455     -0.06275137325520      1.36700424835826
