50
Coordinates from ORCA-job 5316860 E -1339.092045794279
  O          -2.39491784601766      0.92139420959034      1.06689749408065
  O          -0.69564302727677     -0.56003097706036      1.08669680110762
  O          -4.55339621527344     -1.15101708073062     -1.75645757039112
  O          -5.26590695491286      1.52338548833483     -1.09559686653070
  O          -1.80909271831143     -1.77083952411709     -1.33769686307414
  O          -3.07144509361292      3.44660173960640      1.98668635932236
  O           0.85200243137298      1.80987676933448      1.04492876711624
  O           0.40631043225476     -2.88547104349706      0.14626632991394
  O           7.21338079199949      0.67857749270752     -2.50631019785591
  C          -3.60518978686305     -0.24045989015098     -1.21709435613934
  C          -4.35902165052715      0.74199953620937     -0.33621049952108
  C          -2.51920307787140     -0.95250644956708     -0.42902529795381
  C          -3.37084061398296      1.68541201787925      0.34543782849898
  C          -1.62548339301181      0.09074476363699      0.23780830815262
  C          -4.02261666946059      2.60106613126953      1.36264756341138
  C           0.61451425695783     -0.55890818490897      0.68254465679451
  C           1.39772412775580      0.60283869450085      0.70204210912279
  C           1.18955612063731     -1.75450632273122      0.25607003228357
  C           2.72016877978150      0.55261281407396      0.29573590966005
  C           2.51576223042931     -1.79902899108134     -0.14017973169901
  C           3.30156081453907     -0.64372849973218     -0.13729697376203
  C           4.69105865374470     -0.73636125213068     -0.59063589464780
  C           0.50755481912657      1.96630287032750      2.42563341526305
  C           0.12128822284154     -3.54175253100129      1.39013195417212
  C           5.55391506960414      0.26463407887328     -0.76777065788990
  C           6.96254781279814      0.07664467472208     -1.23311443723778
  H          -4.06206250883873     -1.81305868015705     -2.25865101900494
  H          -5.77109473456240      0.91555856730441     -1.64994719023664
  H          -1.13982491383448     -2.28655753862023     -0.85516120249086
  H          -2.36826228637934      2.87594859110860      2.31970179306553
  H           7.08470950764912      1.63053434327245     -2.42994575111384
  H          -3.12659476952466      0.32197635532345     -2.03090046373895
  H          -4.89514355666823      0.17406793859438      0.43617989947364
  H          -2.97874170758431     -1.54922448363718      0.36873681017753
  H          -2.86400302522079      2.29335809121267     -0.41509884945162
  H          -1.08669968331382      0.67942223814435     -0.51447627038399
  H          -4.55230205058156      1.98836580227054      2.10377236661408
  H          -4.74753259977405      3.23939733914233      0.86091253834264
  H           3.28486631023608      1.47385491833686      0.32538075879890
  H           2.92166099375109     -2.74224463259319     -0.48192035974486
  H           5.03231657256489     -1.74478501342966     -0.80957912092925
  H           0.11613753573538      2.97707127686876      2.52312347645434
  H          -0.24829360557136      1.24168325283955      2.72948217305181
  H           1.39827188417796      1.86042286332879      3.05116574273170
  H          -0.42098063180009     -2.87618855067528      2.06294288485740
  H          -0.49281005357020     -4.40620534556342      1.14674814685115
  H           1.05094664609536     -3.87138642494981      1.85970117711757
  H           5.24930044477957      1.29102545944613     -0.57876435470291
  H           7.18076378377176     -0.98381962279281     -1.36166189395620
  H           7.66325493174170      0.47295072086784     -0.48576247397951
