29
Coordinates from ORCA-job 5316800 E -878.437796701450
  O           2.52997305096149     -2.63357878671452     -0.02187390799461
  O          -0.41246195690616      2.57651825624081     -0.08289436135571
  O          -0.10479430073365     -2.79452957042100     -0.07944975645724
  O          -3.03683717294373      2.42625411369537      0.02311444553017
  C           0.95924717096228      0.66550738143234     -0.02982586940229
  C           1.07138849600733     -0.73817447936531     -0.03025759778813
  C          -1.58914575834578      0.52023465580166     -0.01490791711931
  C          -1.47360690065552     -0.88279133630189     -0.01871919820459
  C          -0.37228696502928      1.36082616013551     -0.04616535120808
  C          -0.14154644636253     -1.57804889297311     -0.04711512012350
  C           2.08259677083243      1.47785076784561     -0.01950212265814
  C           2.36860766153094     -1.29187630808235     -0.01972262250845
  C           3.36221112982819      0.92804545083210     -0.00471833684019
  C          -2.88387188754922      1.08338510490823      0.01505106578773
  C           3.48454012117912     -0.45436713204612     -0.00670270270903
  C          -2.59926882698658     -1.69693413612814      0.00325476630418
  C          -4.00325674676212      0.25027117851810      0.03940259284797
  C          -3.86238529028756     -1.12664080940194      0.03281113721055
  C           4.57668926028684      1.81209290664815      0.03455672052974
  H           3.47372168841478     -2.83527644698966     -0.00967684103702
  H          -3.97906760890322      2.63350071296673      0.05028330806574
  H           1.93720904023245      2.54907193606920     -0.02497058379428
  H           4.47216616628494     -0.90575666437671     -0.00042647756776
  H          -2.45979685271172     -2.76772122240727     -0.00316741983809
  H          -4.99088892090040      0.69871926615411      0.06322631038892
  H          -4.74372412075489     -1.75490289237019      0.05128016275598
  H           4.72492686792607      2.21439315531549      1.04042638627436
  H           5.47932704555396      1.26780533202368     -0.24344125855813
  H           4.46340828583153      2.66207129899111     -0.63976245053077
