34
Coordinates from ORCA-job 5318214 E -1068.168366515829
  O          -0.04285075738247      0.35796545246238     -0.10087655349173
  O          -4.13293963009549      2.54488463484558     -0.12031743493576
  O          -4.04994122386083     -2.24902619152047      0.14956173595226
  O          -1.58264870514677     -3.40038242395231      0.15254085250204
  O           4.28201228443406      2.59573638699264      0.40417806894261
  O           6.18726041119718      0.78486984302383     -0.14297607394585
  C          -2.00687688769640     -1.04742645737647      0.03025464543562
  C          -1.39924114888353      0.21629075523597     -0.05485164477972
  C           0.77167708445439     -0.72838145699820     -0.04498085048860
  C           2.19166328410738     -0.36195114396545     -0.09030238294442
  C          -1.15912544361033     -2.25466575370964      0.08290353592227
  C          -3.41671332431617     -1.05867021803117      0.06586737799999
  C           0.26994520616816     -1.97384670609849      0.05328382661556
  C          -2.10640557419170      1.40415231319196     -0.10500553799786
  C          -3.49302539118656      1.35255913389813     -0.06820518487388
  C          -4.14898975416695      0.12343848421376      0.01711546823699
  C           2.58533923390229      0.95569910781221      0.16656362378277
  C           3.16805159995328     -1.31656952944259     -0.38306631963330
  C           3.92177935269926      1.31039195568644      0.14475370725935
  C           4.50838537827655     -0.96329273672578     -0.40658538643234
  C           4.88969421586688      0.34259988807347     -0.14150062316604
  C          -5.55160861748562      2.56206914325051     -0.08659330192158
  H          -5.00273431637395     -2.09966101323298      0.16777585883519
  H           5.24474929067939      2.66112026757013      0.34963691778440
  H           6.78847747716578      0.05895106603359     -0.34082253758223
  H           0.92820031046528     -2.82523483383566      0.12795988732982
  H          -1.59069457924478      2.35010797934579     -0.17335911583221
  H          -5.22822640662920      0.06906509658984      0.04639632727948
  H           1.85318802596748      1.71621579795776      0.39265610132099
  H           2.88703693938612     -2.33335094900296     -0.61396978251080
  H           5.26247285777104     -1.70608268560383     -0.64130387182243
  H          -5.93233357190126      2.12840637955142      0.84238157475243
  H          -5.83763823886974      3.60952655752899     -0.13891141152222
  H          -5.97604138145275      2.02730685623160     -0.94091949607078
