30
Coordinates from ORCA-job 5318433 E -875.606793831083
  O          -0.67953004382053     -2.26036694296617     -0.00042596071347
  O           0.67535050789419      2.88775342686307     -0.00005814624400
  N          -1.40569222447678      1.15302874706074     -0.00058772246003
  N           2.72449761371166      1.81872248942600      0.00030605247239
  C           0.89104573171138      0.44775172372090     -0.00055779537754
  C          -0.44456982980167      0.17789961564565     -0.00062731598129
  C           2.08484244481557     -0.37693821777874     -0.00047420619882
  C           3.18952737343084      0.50438499464353      0.00016933860085
  C          -2.59794189647762     -0.78731214371374     -0.00017630689584
  C          -2.68033261490902      0.61136776656136     -0.00027273868268
  C          -1.17748285170111     -1.15320699356451     -0.00054382560951
  C           1.35266704917446      1.86565542202139     -0.00016636083715
  C           2.32108055055473     -1.74954921068665     -0.00077134304096
  C           4.49448626298797      0.05674037841603      0.00060508476741
  C          -3.74318068956140     -1.57008889364879      0.00034351442281
  C          -3.90703679873563      1.25799623706203      0.00007496086103
  C           3.63530801483386     -2.20972206008523     -0.00037953400217
  C           4.70659744357017     -1.32203198138485      0.00033456144875
  C          -4.97822620044900     -0.93511049596752      0.00078458601981
  C          -5.04845666182688      0.46133634060659      0.00062666341546
  H          -1.14263850739101      2.13157573921303     -0.00068328753333
  H           3.29471048578700      2.64725670083004      0.00077863466946
  H           1.48961721840257     -2.43597707666740     -0.00127533319568
  H           5.32580028596183      0.74993496450118      0.00114858699381
  H          -3.66027932260422     -2.64919039450510      0.00047721277530
  H          -3.97743370076345      2.33757898190070      0.00002212098357
  H           3.82364830259513     -3.27511071181499     -0.00060501995133
  H           5.72016156930273     -1.70167068416939      0.00067375509532
  H          -5.88981340521419     -1.51686963015353      0.00125693915207
  H          -6.01947610700157      0.94027690863439      0.00098088504574
