43
Coordinates from ORCA-job 5319835 E -1036.836004582440
  O          -1.73034654017630      2.26889549538107     -1.27149915334751
  O           2.54964862243772     -2.33045060838547      0.19383327240284
  O           0.31664753062266      2.43100566783211      0.79530198736358
  O           2.88546076434045      2.36659891962899     -0.25749079139567
  C          -3.73111722274790     -0.81307833327351     -0.01588610682131
  C          -4.12045952442618      0.44766200573251      0.78832234412266
  C          -2.20838273292766     -0.91541372286132      0.01518715537718
  C          -1.44568382266902      0.26009119379563     -0.06079513619141
  C          -3.51487657388072      1.73695237572797      0.22391685652873
  C          -4.40060495304427     -2.02635634946098      0.63865405232198
  C          -4.21555845281561     -0.70648099593385     -1.47509019430998
  C          -2.16441910586112      1.52555057854482     -0.42259315936100
  C          -0.05354896639285      0.21433649175009      0.04898939681459
  C          -1.53184885039563     -2.13161614017602      0.10648715049247
  C           0.60948209121864     -1.01734670812435      0.10678965427584
  C          -0.14735635805783     -2.18971191949846      0.12773480750843
  C           2.07821509056373     -1.06494335877930      0.13037287017465
  C           0.75959605158631      1.43760062570833      0.27389643266824
  C           2.88899738532745      0.02206623096949      0.03565047483387
  C           4.40182937352706     -0.03197930561293     -0.05432603084119
  C           2.26904840215803      1.34422038800265     -0.03136443815051
  C           5.07388806002488     -0.64087453726517      1.18629540755305
  C           4.89396202981763     -0.67811994715956     -1.35851453489007
  H           3.51383844783248     -2.32032472824978      0.20724658728033
  H          -5.20886412346987      0.53388966535777      0.81647697248801
  H          -3.79005834899325      0.30039546218207      1.81953362438965
  H          -4.15657044880111      2.20372494135692     -0.52420836087637
  H          -3.37388191885528      2.47718200583270      1.01688928274597
  H          -4.03666567847041     -2.18341346655591      1.65579987787433
  H          -5.47886171109012     -1.86520036741041      0.68696291955054
  H          -4.23553816797166     -2.94202792097237      0.06946350753664
  H          -5.30171734263684     -0.59319609393499     -1.50375254843833
  H          -3.77220538698737      0.14046155881060     -1.99862524240074
  H          -3.95244636544335     -1.60938661190802     -2.02863450943122
  H          -2.08930578876424     -3.05588880476818      0.15637992932063
  H           0.35323787893828     -3.14488042130762      0.18154603740248
  H           4.70680841307873      1.01435002260852     -0.09137133992329
  H           4.70361041632971     -0.17395528883732      2.09950944022778
  H           4.92198108259471     -1.72073443197606      1.28971819150697
  H           6.15308963772233     -0.48536436458211      1.13696741716950
  H           4.63522849853725     -1.73828113567631     -1.43541198144308
  H           4.46084357480668     -0.17428123947573     -2.22299649312975
  H           5.98085203341384     -0.60330482703647     -1.43009962897949
