43
Coordinates from ORCA-job 5319836 E -1036.835054076240
  O          -2.58351199385299     -2.11925582251826      0.27009379870107
  O           2.37774216960488     -2.79698794099227      0.24466032285007
  O          -0.64791355964876      2.80916716674143     -0.55546929230734
  O          -3.26934448451299      2.43682937758460      0.05431786438920
  C           3.73147911673095     -0.32695258126407     -0.09039400897861
  C           4.17641205138629      1.11495771921056     -0.39496410782124
  C           2.19791869993877     -0.42609012285416      0.00406611948688
  C           1.35044707942289      0.70425633321838     -0.03836833636365
  C           3.39464689847838      2.13904465173572      0.39942561904393
  C           1.94099859051464      2.09634069227270     -0.03743883320168
  C          -0.05684926578420      0.55219368735676     -0.04282890443447
  C           4.37164281331798     -0.77087998925409      1.24118600844807
  C           4.27204636004484     -1.19992203657929     -1.24208862799268
  C          -0.60949602106320     -0.73727621381427      0.08249003184028
  C           1.59167417025234     -1.68804832996243      0.13875897998797
  C          -2.05206724473633     -0.89192553739699      0.13168938738328
  C          -2.95683960756187      0.10743721333386      0.09142545872232
  C          -4.35023125182651     -0.45283186639354      0.21995985745780
  C           0.21211855587133     -1.84216218738265      0.18020675703409
  C          -0.99314666722283      1.69944506150087     -0.21683034934419
  C          -4.04119868021457     -1.97005878032266      0.28880020760001
  C          -2.52997731144535      1.47248975927570     -0.00276960926699
  C          -5.28299591091176     -0.07101571925128     -0.92992540612042
  H           1.81648354392733     -3.57581436311100      0.33327468137665
  H           5.24983250755237      1.18677077602559     -0.20480956930533
  H           4.03243636183555      1.31870650420383     -1.46131233292765
  H           3.47481017445304      1.93744162307147      1.47143674412627
  H           3.79178138457204      3.14352515312766      0.23985382093567
  H           1.84380107853306      2.52129334249261     -1.04073646872044
  H           1.32938959508452      2.74044521604022      0.59083543699964
  H           4.07137855512222     -0.11614285318349      2.06027547623061
  H           4.09246101392529     -1.78899346832238      1.50164610537292
  H           5.45982131795194     -0.72760792836322      1.15530351619448
  H           4.15938230279397     -2.26281827192546     -1.05271371504305
  H           3.76258352270724     -0.95760764293570     -2.17704328819917
  H           5.33511717491077     -0.98720881223677     -1.37691436525068
  H          -4.79950851700078     -0.11381146576338      1.15804591054125
  H          -0.22438189553667     -2.82790825683019      0.28555813802075
  H          -4.42484135035930     -2.50934798132419     -0.57788968594250
  H          -4.39571225528949     -2.45009193349294      1.19904031734904
  H          -6.26006135898952     -0.54517436797576     -0.81221938548784
  H          -5.42401035040171      1.00867332393334     -0.95585656068273
  H          -4.86140431257384     -0.38557612767485     -1.88734371270158
