31
Coordinates from ORCA-job 5320114 E -842.507271638792
  O           2.51334082213545     -2.52773397354126      0.12743523707999
  O           0.89854747607287      2.59757404567556      0.31624548706393
  O           3.46336140186363      2.05687312832017     -0.29291923722843
  C           0.21959171911948      0.32122132442361      0.03719913152667
  C          -1.19790333298421      0.52523963637152     -0.00935932884761
  C           0.73765827816903     -0.97451448685580      0.05863762006349
  C          -2.06331606308095     -0.62000101146789     -0.00938929196436
  C          -3.48109256981063     -0.45743653595357     -0.06235159218134
  C           2.18684894256197     -1.21617778813010      0.06282230430540
  C          -0.12879997709123     -2.08419398510827      0.07165625108641
  C          -1.48497012988109     -1.90557164582877      0.04235905303810
  C           1.19054366215997      1.44469806823646      0.09421314801448
  C           3.13526935520106     -0.25395035930726     -0.02626237683056
  C          -1.79508981857605      1.81078731841257     -0.07771181837228
  C           2.70269250382263      1.12859194569307     -0.10574530014534
  C          -3.99780457763733      0.81228620781784     -0.12138713651716
  C          -3.15654753208348      1.93999609276453     -0.13409288641210
  C          -4.39767942248373     -1.65037245559300     -0.05869743810019
  C           4.60233340706673     -0.56696505488255     -0.08327071670382
  H           3.47434924524556     -2.62069019165675      0.11535668796703
  H           0.28872185806997     -3.07849310399918      0.10442098621022
  H          -2.12643854306892     -2.77513780827095      0.05447669082458
  H          -1.16610825683695      2.68308638808274     -0.07705120730922
  H          -5.07159186473667      0.94933184065802     -0.16334609844976
  H          -3.59565009479580      2.92813408094351     -0.18955741610788
  H          -4.27173529577535     -2.25520061461523      0.84284216003740
  H          -5.43738022330146     -1.32866221599022     -0.10091891772374
  H          -4.21526767203126     -2.30363211080280     -0.91571162070263
  H           4.94215741404156     -1.10922757533050      0.80579193668808
  H           4.86381876070270     -1.16175113731593     -0.96504298331171
  H           5.16267852794251      0.36402497725046     -0.13794132699766
