38
Coordinates from ORCA-job 5320945 E -1182.685688214319
  O           0.34214625449423     -0.20282864024300     -0.09050626744455
  O          -0.37779083557967      2.98444378865506     -1.63412217956503
  O           4.35940945118993     -2.38001030994759      1.13041055359747
  O           4.56885546570693      1.87671268092425     -0.86563263056720
  O           2.18065575149452      3.07907807579316     -1.55021930108261
  O          -4.04373789386100     -2.09198995808659      0.68681051552969
  O          -5.90553259793083     -0.34735356108891     -0.37156166172907
  C           2.42577064888107      0.91928700078754     -0.51850874949174
  C           1.69054401298070     -0.17293363162539     -0.03850255336821
  C          -0.40109036302042      0.82332022646736     -0.61471585593692
  C          -1.83437260901501      0.55982941583846     -0.55717073404052
  C           0.24496991019269      1.91387334747508     -1.09856999558688
  C           1.70275935216439      2.03985492545889     -1.08473624807595
  C           3.83917018339239      0.83579827981145     -0.40998391419559
  C           2.28069926287078     -1.30393645081543      0.52352860053476
  C           3.66188249924611     -1.34552305791627      0.60991414419001
  C           4.43845596693549     -0.27571366261331      0.14370698043691
  C          -2.30541394309746     -0.60988097515531      0.05724338386258
  C          -2.77615495725757      1.44439888750605     -1.09802995603918
  C          -3.65436570652741     -0.90378189294735      0.12797959515375
  C          -4.12801656961048      1.15213927368222     -1.03012752620456
  C          -4.58452365946764     -0.01612686761802     -0.43099618843498
  C           3.63878347130707     -3.50239191349365      1.62126620147246
  C          -4.77647631532506     -1.98772086379082      1.90908484090938
  H           0.37355988452767      3.57391093524775     -1.87278648481364
  H           5.50576481911650      1.68889876743003     -0.73224918379892
  H          -6.42489989187018      0.33690276997345     -0.80903028632054
  H           1.64384774891983     -2.10258407352315      0.86701805055513
  H           5.51592741875125     -0.34297885586276      0.22755260116324
  H          -1.61780126873957     -1.32165083812549      0.48750931874650
  H          -2.45235806292067      2.35441651455449     -1.57426603145277
  H          -4.84650850139080      1.84076771373841     -1.46214053581099
  H           2.97559985450322     -3.21670985346955      2.44195336733208
  H           3.05457265423315     -3.97386996095151      0.82672473783899
  H           4.38780030728032     -4.20082681147388      1.98528847784813
  H          -4.97687295163683     -3.00784437185391      2.23059084235419
  H          -4.17819718456646     -1.47634485053513      2.66963323059905
  H          -5.71864560637120     -1.45736220220658      1.76463384183555
