31
Coordinates from ORCA-job 5321864 E -1028.873073981415
  O          -0.10563459953532      0.60913922822920      0.07052770231444
  O          -4.23313046174584     -1.80764404366522      0.29795767609537
  O          -1.84484130460156     -2.99347469867132      0.83376233131764
  O           2.03131134819621      0.99798679811938     -1.64167443240621
  O          -4.08795258603700      2.83300072639405     -0.86659895330251
  O           4.62972201546623      1.49408789019964     -1.51906080236361
  C          -2.13350063812735     -0.69922842910281      0.21024886894461
  C          -1.45926731430595      0.50801019221057     -0.03627601923227
  C           0.63986446780715     -0.48202743322229      0.37361030363664
  C           2.08171822316648     -0.19876295316615      0.43174571072709
  C          -1.35898957449252     -1.90009829580725      0.58144329444766
  C           0.08304792957844     -1.68045903806090      0.61688150866260
  C          -3.54016181857529     -0.67029422233002      0.07414613532338
  C          -2.09762065447173      1.68674925998397     -0.39383877199425
  C           2.72048444730776      0.53865883652078     -0.56846815461993
  C          -3.47456181213509      1.67156512361444     -0.51479511353150
  C          -4.19628661750292      0.50005030321187     -0.28251532955723
  C           2.84074116086884     -0.69679425644474      1.49745352488041
  C           4.09858732176383      0.76827590181003     -0.47956794855965
  C           4.20206558022871     -0.46582640597251      1.57408355054678
  C           4.83649362665708      0.27394165065945      0.57959660838925
  H          -5.17323595145934     -1.63811086686808      0.16403846876425
  H           2.65671116605365      1.43818442755849     -2.23349695675814
  H          -5.04065136640571      2.69757802902343     -0.92132171710324
  H           5.58465836759785      1.56768754518161     -1.42138729666099
  H           0.70861853188275     -2.53279835086887      0.83539393968313
  H          -1.52745961371673      2.58530496367055     -0.57409853952018
  H          -5.27737333417752      0.49987879556678     -0.38045533041895
  H           2.33715931358777     -1.25264645092815      2.27585103946392
  H           4.77353229586904     -0.84870668862226      2.40820312115064
  H           5.90255685125807      0.46564846177634      0.62881458168086
