47
Coordinates from ORCA-job 5322079 E -1263.475947559560
  O           0.13454057272469      0.23715121094955     -0.20800460252511
  O          -4.07939527457598     -1.46854551806176     -1.17001099505002
  O          -3.67422300500196      3.04594300115222      0.40502876493399
  O           1.40433971358198      3.39058619665058      1.01634943158229
  O          -1.11312262222285      3.90284145530544      0.92111371209825
  O           6.28411636503241     -0.86366176384748      0.29951586290420
  C          -1.96223168766398     -0.60179198299192     -0.70702246758027
  C          -1.19544316924052      0.47220881511494     -0.25566453399472
  C          -1.72810900607213      1.71844316770167      0.12237029913096
  C          -1.31747219565660     -1.90337242293074     -1.10996020100349
  C          -3.34177583283919     -0.40946725285233     -0.75075949961352
  C          -3.12951570079815      1.86149093325753      0.04727005023597
  C           1.04149155854414      1.16937119756948      0.21986042103153
  C          -0.81694940174348      2.76022279362516      0.55775813090380
  C          -3.92151271922572      0.80931134406822     -0.37968799695856
  C           0.59851441332877      2.39881149522522      0.58022746539911
  C          -0.86485201364819     -2.72624719209001      0.07090921426900
  C           2.40315122484987      0.64917278387318      0.23969431990575
  C           0.16307164630380     -3.57471913951788      0.11620970132944
  C           3.52096853857006      1.48839507026726      0.36672122744765
  C           2.62124440019143     -0.73058447108546      0.13354182597587
  C           0.49348387587322     -4.32663019479779      1.37519795190662
  C           1.06246534913067     -3.87521679791578     -1.04978689087347
  C           4.80202897614819      0.96875327891701      0.38226083661970
  C           3.90264884035024     -1.25288545896180      0.15307144318301
  C          -5.48938907839111     -1.34195077102963     -1.25464473898001
  C           5.00070005417932     -0.40514559222728      0.27619698834382
  H          -4.63213419070550      2.99863048418802      0.30294494283671
  H           0.77065099226398      4.11755123929935      1.20788199916392
  H           6.28666774162802     -1.82440497378718      0.22055685699673
  H          -2.03963911717228     -2.47171468395009     -1.69851678137115
  H          -0.47353229926457     -1.68948722951468     -1.76712870368824
  H          -4.99267622363671      0.94650265497538     -0.42088804517047
  H          -1.46261878326608     -2.60424392213984      0.96969174510898
  H           3.38134365606909      2.55402571717242      0.45144320243532
  H           1.77643750676500     -1.39665144180369      0.04956393821386
  H           1.50295807965364     -4.07912601444907      1.72042526585355
  H          -0.20618469463596     -4.09658982307150      2.17859247661364
  H           0.47743940503329     -5.40791670814837      1.20397364661575
  H           2.11426243681307     -3.80076945191889     -0.75827947482115
  H           0.90872284419473     -4.90382625717903     -1.39221697474101
  H           0.89906825414924     -3.21523840372080     -1.89924712284646
  H           5.66221816098438      1.61783742972018      0.47554214330689
  H           4.05141054976688     -2.32448982507729      0.07549654721349
  H          -5.85211375665651     -2.30189306777995     -1.61359849246393
  H          -5.92949353516113     -1.13210587247200     -0.27587209886276
  H          -5.77740784855150     -0.55861603571047     -1.96117379101543
