55
Coordinates from ORCA-job 534587 E -894.765557491013
  O           3.59913806039211      1.05343775735193     -0.05976984289506
  O           3.43653917052662      0.77270259260095     -2.28363096337993
  C          -0.87870268995136      2.56604114070882     -1.13407120938381
  C          -0.47865899589951      2.79597269996775      0.32640493221013
  C          -1.99784707934435      1.54425529528586     -1.35176640043488
  C           0.53127195790179     -2.41273466093787      0.51366496898148
  C          -0.88991877913195     -2.45623857494187     -0.03843704555918
  C           1.53994060740860     -1.84708791062750     -0.48157717981558
  C           0.01095551507675      1.54675117151152      1.05595320236699
  C          -3.30718435071700      1.88797322854888     -0.64728895254102
  C          -1.92989364073107     -2.86918281830914      0.99724896044575
  C           2.96067165873483     -1.79091463297966      0.07279370909467
  C           0.51129839992624      1.84210805392195      2.46803280768930
  C          -4.42540918340190      0.86600220807945     -0.91721275423822
  C          -3.36764531651839     -2.87348477681447      0.44874366954173
  C           3.95847035754156     -1.13214991328982     -0.88710320401974
  C           1.04932961506486      0.60965012593376      3.18843793349098
  C          -4.10241744186057     -0.47175505088625     -0.43163686375528
  C          -3.79683186754325     -1.56324597536484     -0.02961791430529
  C           3.63562130259510      0.31162695908884     -1.18841202981581
  C           3.32788187494190      2.45099637816765     -0.24027283748769
  H          -1.17959398283633      3.52454294863682     -1.57012442345912
  H           0.00204786495071      2.23904998972907     -1.69673174154318
  H           0.31171053586195      3.55346311292051      0.35362051606371
  H          -1.31803611961574      3.22861964823582      0.87966301770220
  H          -2.18597213432628      1.45489408011724     -2.42675531439931
  H          -1.66765947285602      0.55655697502454     -1.02408331659172
  H           0.54568645040632     -1.79926976085124      1.41970274975075
  H           0.84099183846815     -3.41797722182588      0.82153535183455
  H          -1.15362118682438     -1.46984845506619     -0.42796319645870
  H          -0.93252878549814     -3.14076762347957     -0.89327796045849
  H           1.53011542061936     -2.44355047049888     -1.40037108890705
  H           1.22017271707423     -0.84175253611368     -0.77420060818532
  H          -0.79165202993111      0.80465662060750      1.10895693067423
  H           0.81574252938074      1.07886648749957      0.47996761230546
  H          -3.15039071548897      1.95003336576874      0.43207671742493
  H          -3.65365208130448      2.87387225267095     -0.97359460924008
  H          -1.70182517329629     -3.86997570606130      1.37687541539941
  H          -1.88087522984974     -2.18821898784718      1.85217207386215
  H           2.96508599170843     -1.24776079206577      1.02025094944992
  H           3.30887139167866     -2.80424890691262      0.29192649930553
  H           1.29532038935412      2.60530203374463      2.41835207779910
  H          -0.30261306152090      2.28457522150630      3.05204948323351
  H          -5.35252641650371      1.20922281110585     -0.44833175617056
  H          -4.62288001717325      0.82122111556649     -1.99381315311062
  H          -3.43932957379222     -3.59709736119545     -0.37063649379607
  H          -4.05310551223035     -3.22195019055060      1.22703124291704
  H           4.96133098275255     -1.16376953979914     -0.45258727180134
  H           3.98663566726272     -1.65701772832555     -1.84172478821829
  H           1.39221169065189      0.85239084773588      4.19620671806302
  H           0.28038497940843     -0.16187017969675      3.27608329392810
  H           1.89221167399314      0.17813803833452      2.64406190637376
  H           3.27594870748082      2.87110023485082      0.76017691865603
  H           4.12692529444163      2.92091491588667     -0.81318468958810
  H           2.38494819254303      2.59406946333187     -0.76458204900502
