37
Coordinates from ORCA-job 5352001 E -1107.449627831939
  O          -0.49381821676730     -0.93540519947963      0.13159053578470
  O           0.62600851987240      2.37727466825003     -0.73427954956301
  O          -4.53208001777487      1.59284400163273     -0.23243322944840
  O          -2.10193123156309      2.69186109909462     -0.70923701496906
  O          -4.56625386962381     -3.05758920823109      0.90138802781998
  O           5.69058886547785     -1.54395439731101      0.18275909689605
  C          -2.47004356507600      0.41972002693213     -0.07464888164315
  C           0.32482000749481      0.12234898324855     -0.14235824122343
  C          -1.84151391285546     -0.80490097175046      0.18853201586715
  C          -0.20227068110794      1.34543179616161     -0.40878942942681
  C           1.73602235098407     -0.26682203007297     -0.09170512284476
  C          -1.65249948278919      1.58939818877764     -0.42574595593598
  C          -3.88269948361018      0.43346732430330      0.00698691805577
  C          -2.52726768203746     -1.96789804713973      0.51350377704796
  C          -4.58458966623069     -0.71832659034038      0.33169571800423
  C          -3.90620243850295     -1.91292260285593      0.58219466378634
  C           2.11625356004080     -1.39088810311162      0.66054331865635
  C           2.73506296596179      0.42880346899141     -0.77716118809739
  C           3.43405149242273     -1.78808677379354      0.73636510397500
  C           4.06331588254246      0.03102351029069     -0.71244623355080
  C           4.42307147892480     -1.07893243207778      0.05018077822449
  C           0.63181191585982      3.48054300201643      0.18152926052853
  C           6.73384948319052     -0.86420087112953     -0.49745740245911
  H          -5.48163432371262      1.44951197380698     -0.14087626814114
  H          -5.51650344982870     -2.89684357240258      0.91449806814921
  H          -1.99344682299952     -2.88707925422469      0.70150036816480
  H          -5.66788541115043     -0.68670128621480      0.39168904821326
  H           1.36380544591141     -1.95242143255925      1.19442886147355
  H           2.47091256142267      1.28661200139504     -1.37352811487148
  H           3.72493652676557     -2.64872295318270      1.32359600089355
  H           4.80379107116138      0.59071895932558     -1.26397363649544
  H           0.95969253981354      3.14498210749504      1.16992917683114
  H           1.35015376971075      4.19457846655383     -0.21597446325218
  H          -0.35476862783544      3.93599152924393      0.24162350848015
  H           7.64861552744957     -1.39798531226949     -0.25177945559501
  H           6.58106269475589     -0.88382064073689     -1.58028887985852
  H           6.81687622370282      0.17352057136452     -0.16199717947655
