29
Coordinates from ORCA-job 5354834 E -467.022302315017
  O           5.23361040172963      1.48768293819791     -0.41141647068789
  C          -2.12933432112283     -0.14182517633223      0.46379199553362
  C          -0.91109878863347     -0.44149077960187     -0.40591709879972
  C          -3.42334234601877      0.00001283799313     -0.33351894989117
  C           0.38056604446283     -0.58177026700548      0.39489242747577
  C          -4.64343823618187      0.30066607883263      0.53426047572506
  C           1.60162005274600     -0.87288180591144     -0.49062198947421
  C          -5.93179281124939      0.44035041512570     -0.27212694314865
  C           2.83953160252944     -1.08412716286597      0.31977483453015
  C           3.95875523889322     -0.34843046134571      0.34248573544922
  C           4.20486900662854      0.84841525310972     -0.46474288242244
  H          -2.24766807282250     -0.93813962265634      1.20737260078899
  H          -1.95094630614433      0.77859956009052      1.03103219100493
  H          -1.08710149381059     -1.36244215300764     -0.97310597604672
  H          -0.79174485710111      0.35499972765367     -1.14885294868590
  H          -3.30491919601940      0.79597928415493     -1.07774674855906
  H          -3.60215156981946     -0.92059902774575     -0.90104881279561
  H           0.56441027881303      0.33512017427485      0.96327450200237
  H           0.26870227384514     -1.38284324352887      1.13328815771247
  H          -4.76055004353962     -0.49495892117470      1.27768408056608
  H          -4.46362675459842      1.22072249568462      1.10038526885138
  H           1.40581671954618     -1.78753502107158     -1.06245214828789
  H           1.72424565928586     -0.07064037796643     -1.21800241514708
  H          -6.78629964149084      0.65491350184237      0.37255170190263
  H          -5.85302202116095      1.25073590264843     -1.00124051210904
  H          -6.15225010678826     -0.47777967198294     -0.82261518360181
  H           2.79679180452926     -1.94099062743833      0.98864068948301
  H           4.77467702153579     -0.62320629680754      1.00211608701238
  H           3.39265846195692      1.16457544683436     -1.14634766838086
