27
Coordinates from ORCA-job 5363695 E -465.799371751461
  O          -2.74983901238992     -1.36192730648246      0.20844348611461
  C          -2.76128901323709      0.06341103691394      0.06911539411180
  C          -3.60627568874556      0.68386962810493      1.18905748676975
  C          -3.40094103849567      0.32778068425708     -1.29561733189909
  C          -1.36643514470184      0.63763103686869      0.10333627293168
  C          -0.23317760649297     -0.07202016416025      0.04489734939145
  C           1.08059385786915      0.52406021566942      0.07538414861545
  C           2.27594778231860     -0.10635157494540      0.00806575996362
  C           2.42943031591773     -1.59513329154538     -0.11521407103064
  C           3.48755337492541      0.70100045734435      0.05605772272795
  C           4.74399339621774      0.24790177755374      0.00096029374746
  H          -2.38304734395547     -1.57540101247172      1.07485155230076
  H          -3.16588590144068      0.46974406319796      2.16597941171696
  H          -3.66788816630198      1.76840465450882      1.08065297394080
  H          -4.61559639547383      0.27142622753203      1.16193070810464
  H          -4.42059322560694     -0.06054746908575     -1.30891445281777
  H          -3.42856797972643      1.39735232975223     -1.50741330471204
  H          -2.82425905378322     -0.16796162340667     -2.07608653847151
  H          -1.31281216828886      1.72164633090648      0.16759384141810
  H          -0.31359044290910     -1.14872100927978     -0.04211808470459
  H           1.09867556967184      1.60761422882784      0.16186181290190
  H           3.00373573239281     -1.99396976927487      0.72530679864787
  H           1.47420692522016     -2.11214757996782     -0.14540292136606
  H           2.97860855853353     -1.85094966237849     -1.02524285516021
  H           3.32719820650924      1.77185407699120      0.14549669220602
  H           5.58355571519579      0.92865399761912      0.04431441939479
  H           4.97771174677755     -0.80499628304923     -0.08866256484371
