26
Coordinates from ORCA-job 5364586 E -427.704533333758
  O           5.00498328634381     -1.22540463377228      0.06092685930068
  C          -2.83983331383638     -0.21553603120608      0.25100484799165
  C          -4.24199798392675     -0.07897609800903     -0.33764803398855
  C          -1.86892148138566      0.86268656657115     -0.24916066117517
  C          -5.20345568514551     -1.15591642551677      0.15771503973210
  C          -0.51148137710836      0.75212637242400      0.36432688783669
  C           0.62294874521675      0.52372579890592     -0.30501056278627
  C           1.92604232370224      0.40242655053020      0.31639247415048
  C           3.06984859248654      0.18343105887301     -0.34189794602726
  C           4.40201568583903      0.04712582881926      0.31768682459595
  H           4.36641471177983     -1.90552595187398      0.30480539050620
  H          -2.89829637516680     -0.17046436811282      1.34419364300127
  H          -2.43271735995797     -1.20222869176171      0.00763801662492
  H          -4.64051188239515      0.91098532448539     -0.09165178777063
  H          -4.17863295897844     -0.11824669429750     -1.43019970980290
  H          -1.78808864002416      0.80755056999697     -1.33864333870251
  H          -2.29480916817985      1.84650738747460     -0.01547530530476
  H          -5.31002969852195     -1.11774306674449      1.24475571690246
  H          -6.19702589690050     -1.03585123329814     -0.27848758311234
  H          -4.84341908601865     -2.15418576455811     -0.10333708961481
  H          -0.46439567620205      0.85163963785711      1.44738929729332
  H           0.58710812022321      0.42084668454942     -1.38721750862189
  H           1.95721905048270      0.50544455698651      1.39943512394312
  H           3.05796754194951      0.07025640288191     -1.42304210066349
  H           4.30913252822834      0.22666970735816      1.39596248583323
  H           5.11101199749623      0.77666251143731     -0.08115098014149
