42
Coordinates from ORCA-job 5364660 E -550.226307287353
  C          -2.09832393358436      0.24548065977956     -0.19339483713737
  C          -3.29064542516608     -0.60324030181582      0.24009838912813
  C          -0.75015704418832     -0.41026331763973      0.13237267097984
  C          -4.63932188078897      0.03801397591884     -0.07600672500898
  C           0.44954567142799      0.42198041996261     -0.24723836750939
  C           3.76967631756815      1.00981784288252      0.90260328202052
  C           2.48124318476984      1.76289569041773      0.53123235393425
  C           4.10447210473369     -0.12893406397626     -0.05671007727224
  C           1.24943882306201      0.92398891798132      0.69629049666410
  C          -5.83420538120472     -0.80720931559082      0.36004359871404
  C           5.36077436061289     -0.90340551716200      0.33420477634036
  C           0.65453858377402      0.62230825756428     -1.72356355654738
  C          -7.17735059240545     -0.15674404204441      0.03930177051993
  C           5.69071638898382     -2.03515691632297     -0.63563676332286
  H          -2.16944087066768      0.43823949525043     -1.26800599169838
  H          -2.14438909301971      1.22257643017355      0.29876639689134
  H          -3.23294502553651     -1.58365348822560     -0.24670101031033
  H          -3.22516374315963     -0.79572546885992      1.31708491860975
  H          -0.71331366663181     -0.62845380799658      1.20295884187741
  H          -0.69947016777643     -1.37586957486257     -0.38670672684635
  H          -4.69584852877928      1.01964331439897      0.40848088598600
  H          -4.70636385351540      0.22845490500337     -1.15347266982791
  H           4.60278601187474      1.71971602838682      0.92879933273272
  H           3.67248742080991      0.61152851864781      1.91883081118096
  H           2.39425447242729      2.64225191467970      1.17833389733484
  H           2.56935894312913      2.14252636857300     -0.48855812513441
  H           3.25543421318511     -0.81742242072616     -0.11069880154903
  H           4.23092704036309      0.27761622462175     -1.06724153637562
  H           1.00594063397957      0.68414134208193      1.72984742315911
  H          -5.77674568523322     -1.78772616260120     -0.12448988370024
  H          -5.76646331061431     -0.99653663944484      1.43661410566062
  H           6.20889299245464     -0.21280173284590      0.39347315830139
  H           5.23099876259998     -1.31140454729066      1.34229572747841
  H           1.58400582195642      1.13661055284955     -1.95551960133249
  H           0.66858518532191     -0.34448393483043     -2.23660172548102
  H          -0.16497230621221      1.19732105169876     -2.16342842822127
  H          -7.27372645580482      0.81131190913647      0.53754440908598
  H          -7.28446579415511      0.01397975984471     -1.03497755943567
  H          -8.01267857676888     -0.78154127234159      0.36178101586505
  H           6.59044118874979     -2.57440805868069     -0.33238946669459
  H           4.87154469957429     -2.75677524273937     -0.68919615959601
  H           5.85712651385462     -1.65089975385619     -1.64531324946321
