53
Coordinates from ORCA-job 5365682 E -781.431998500705
  O          -7.17453154393204     -0.75505178177402     -0.08676429015518
  C          -1.19946814624667      1.28036442423820     -0.58883186272582
  C          -2.50276569466310      1.03581826868448      0.16619768561943
  C          -0.09476825001839      1.86621879119123      0.28557474192754
  C          -3.59672648101939      0.40949185918217     -0.69446315262933
  C           1.22565379008085      2.05629903362517     -0.45387944481816
  C          -4.88959190273534      0.14185357396698      0.07226455877194
  C           2.33438312500467      2.63638007143561      0.43525440915347
  C          -5.94613736852871     -0.54813761836469     -0.77775707119256
  C           1.34596403108581     -2.03732546012468     -0.30181086818298
  C           0.10210075891489     -2.21632718120561      0.56350543739922
  C           3.63163628476087      2.78725954298666     -0.30195082747290
  C           2.58576469148032     -1.61887732405610      0.49512300859940
  C          -1.11401372301971     -2.70720577056055     -0.21871541035965
  C           4.66629255235530      1.95065259929458     -0.27140493578447
  C           4.76607821361887      0.67747896343298      0.52649529013015
  C           3.80769580293583     -1.50066681793085     -0.36755066327652
  C           4.72556556196935     -0.53702119403301     -0.36268717607416
  C          -2.35195626240365     -2.89890456140746      0.65279401884683
  H          -6.99936853507243     -1.30213942821064      0.68676061102958
  H          -0.85170471114904      0.33730740844225     -1.02276704964802
  H          -1.38811654585659      1.95071544487219     -1.43467678249667
  H          -2.30323403430272      0.38471075019124      1.02428488758586
  H          -2.86539034742551      1.98172965893954      0.58343846906381
  H          -0.42603892690258      2.82637209874878      0.69701216880550
  H           0.06864851135894      1.20884833855541      1.14730337487960
  H          -3.80814809470595      1.06575932960625     -1.54586577498971
  H          -3.22595763164360     -0.52900181493953     -1.11939507413515
  H           1.56536843961916      1.09719700572667     -0.85511121384981
  H           1.07380418645283      2.71072567237854     -1.31874968894553
  H          -4.67007114111349     -0.48565494833596      0.94469771337475
  H          -5.30262946166243      1.07928114278476      0.45627153162814
  H           2.01251433458740      3.61245580654140      0.81286948154765
  H           2.45692417842732      1.99444656639368      1.31029170396055
  H          -5.55303386462882     -1.49922919328987     -1.16192478682136
  H          -6.19989433490736      0.07040594850269     -1.64100447883249
  H           1.55941079397388     -2.97558211946447     -0.82554390037007
  H           1.14923833816275     -1.29403270309911     -1.08091050991991
  H           0.32171588958301     -2.92555383024607      1.36990964968001
  H          -0.14112670046798     -1.26716627496798      1.05344050067680
  H           3.69918114365009      3.64938515187530     -0.96020089710320
  H           2.38373490621375     -0.68221388630375      1.01864128277118
  H           2.76400961826967     -2.37137504063456      1.27401636872405
  H          -1.33579716066626     -1.99700099338964     -1.02112444051762
  H          -0.86512501439297     -3.65209416007241     -0.71275432735797
  H           5.52301644031339      2.17222270364205     -0.90189767572525
  H           5.71940422193784      0.67634775069035      1.06902022004820
  H           3.98214166416677      0.62741623624542      1.27901569243772
  H           3.94004920829582     -2.31162116804271     -1.08018950064118
  H           5.54052804293594     -0.61000111483082     -1.07778591220258
  H          -2.62661476335693     -1.96898750579948      1.15502866216561
  H          -3.21078912985269     -3.22444738513764      0.06222844219476
  H          -2.17489395948095     -3.65032486595294      1.42616580520647
