33
Coordinates from ORCA-job 5367530 E -544.417644087235
  O          -7.07948846022753     -0.98660021606682     -0.21608821433835
  C           3.55308907482280     -0.30088401512177      0.31035573865611
  C           2.44156524019656      0.60179347035731     -0.21891010504292
  C           4.93288584315165      0.04832745108125     -0.24154296065692
  C           1.06330360516817      0.24836464530724      0.33335576542619
  C           6.04630532205248     -0.85369175476819      0.28649884397108
  C          -0.04924354011436      1.15698135738067     -0.21067803332755
  C           7.42143068843592     -0.49633748048391     -0.27124700242917
  C          -1.38616727641085      0.83548432393530      0.36501345613798
  C          -2.45303495446856      0.42377401104693     -0.33274858043378
  C          -3.72164594119755      0.10569013262864      0.27110413435847
  C          -4.81617767278034     -0.30962679816094     -0.39185422974518
  C          -6.05646477938192     -0.60824355396336      0.31292386248901
  H           3.57574196501284     -0.24320854414635      1.40452746619621
  H           3.31903046300497     -1.34330941753910      0.06660461220226
  H           2.67307301003346      1.64458691274660      0.02584181890242
  H           2.41853071481101      0.54447131640696     -1.31292754537636
  H           4.91045104777436     -0.00917521265401     -1.33593201401022
  H           5.16735033508142      1.09108482884065      0.00185446217052
  H           0.82390173629572     -0.79161556389384      0.09094190615151
  H           1.08005257982629      0.31256440939639      1.42658335507005
  H           6.06769989037421     -0.79553272626267      1.37990649628673
  H           5.81104794528339     -1.89507742877329      0.04258726484011
  H           0.20472225974734      2.19671497798332      0.02977420627662
  H          -0.08591433934118      1.08480237129176     -1.30100785300183
  H           8.19694438485624     -1.15638181134993      0.12215040635404
  H           7.43649973822631     -0.57745307724546     -1.36109034203680
  H           7.69537234996058      0.52991253919834     -0.01364402215847
  H          -1.48016491627661      0.92979541290898      1.44524019688188
  H          -2.37751303929342      0.31915722491782     -1.41175669276069
  H          -3.78663211265974      0.21385333787006      1.35212011214707
  H          -4.81764556656450     -0.43753743172427     -1.46909049919783
  H          -6.00943659539921     -0.46288669114431      1.41416298999782
