21
Coordinates from ORCA-job 5370101 E -387.215928158490
  O           2.58389244922806      1.28695952445034     -0.08709541358671
  C          -2.44215957376958      0.00527274169418      0.03856663168602
  C          -1.24610477798668     -0.61509445534604      0.02572975775755
  C          -3.71258783759730     -0.78970720848240      0.07904426387606
  C          -2.63024684449360      1.49193243382808      0.01506433071613
  C           0.04497267906959      0.01662948925365     -0.01205010253694
  C           1.21621674830934     -0.64388617446426     -0.02356023228844
  C           2.50791390551235      0.07151578488035     -0.06302711403331
  C           3.74855819606604     -0.79520974458347     -0.07225162961930
  H          -1.24245041654778     -1.70149357941813      0.04565226360886
  H          -4.30328544396613     -0.52936915132752      0.96337583791294
  H          -4.33936388710426     -0.56102786162225     -0.78905153339791
  H          -3.52292376551098     -1.86247104132648      0.09452689516043
  H          -3.19205876616294      1.81378765520243      0.89745233857560
  H          -1.69743779584025      2.04848676966542     -0.01446931374185
  H          -3.22827217680428      1.78147115951622     -0.85461768822806
  H           0.10457555813229      1.09903271420228     -0.03320248554108
  H           1.23812493476716     -1.72876429560381     -0.00395370893484
  H           3.77118760966198     -1.42976108560544      0.81811193820729
  H           3.73524669554965     -1.46243673942260     -0.93859384715369
  H           4.63901050948730     -0.17171293549056     -0.10207018843874
