25
Coordinates from ORCA-job 5373941 E -726.034903482301
  O           3.37027026796329     -0.35088973115128      0.34244350176710
  O           3.72859804347269      1.49809276654579     -0.92186485570632
  O          -5.42453629275108      1.24628701039276      0.15464607036214
  O          -5.04686764500582     -0.88207477011185     -0.33907242527070
  C          -0.79238564711399     -0.38626894751445      0.03137720026790
  C           1.99046899525010     -0.30780939244344      0.20329579023639
  C          -0.12526259172690      0.78696431412601      0.41188636204183
  C          -0.02066037195259     -1.51870616023236     -0.25210410840698
  C           1.25268383088621      0.83354431637539      0.50136638541011
  C           1.36214977134071     -1.48433593770305     -0.17051070678490
  C          -2.23960440054033     -0.48277829665205     -0.07964599614142
  C          -3.14599067938603      0.48419547803537      0.10837800651012
  C           4.15685346688797      0.60510358911470     -0.24960135614562
  C           5.59959739811292      0.34447961782651      0.07160305203053
  C          -4.58768291085651      0.19044738735342     -0.05085429683876
  H          -4.92246026346864      2.04088805955289      0.37415331981097
  H          -0.69022461814337      1.67898775585750      0.64610398503505
  H          -0.51601963450903     -2.43621579007805     -0.54356650027933
  H           1.75499419789933      1.74414309535550      0.79022712849563
  H           1.95963307762782     -2.35877606753361     -0.38894894011178
  H          -2.63372385423888     -1.45756565308901     -0.35100060151510
  H          -2.85089786393560      1.49292663323930      0.37531533640826
  H           5.74750338261369      0.36629706881285      1.15235332773250
  H           5.88371126656348     -0.64961089651386     -0.27614677937791
  H           6.21827307501057      1.09876655043503     -0.40591789952970
