38
Coordinates from ORCA-job 5380905 E -1182.677712620455
  O          -0.65457944789538      0.92204665182710     -0.24221981753325
  O           0.39700468659590     -2.29184362837385      0.99948250178827
  O          -4.73799916329049     -1.49178442783488      0.33114704108486
  O          -2.33190136920607     -2.56779486148022      0.96142617469913
  O           5.51993260140298      1.47367843126086     -0.29548198866992
  O          -4.68055338562827      3.00834711963554     -1.29937177715701
  O           3.63168454126506      2.66561216266226     -1.72722783138569
  C          -2.65518459912344     -0.37289148504442      0.07938639851267
  C           0.14330459987978     -0.11053599531857      0.15741000295196
  C          -2.00305923411871      0.80662416436012     -0.30484307029968
  C           1.56283995884688      0.25090564388163      0.08390291097349
  C          -0.40676633754807     -1.28917431076732      0.54826711411963
  C          -1.86166939888624     -1.50882492520587      0.56759716995855
  C          -4.06662669742831     -0.37472727122736     -0.02226670363031
  C          -2.66499822466893      1.93762915927529     -0.76430562890891
  C           1.95176028079202      1.28927915848810     -0.77726785801572
  C           2.53920059657157     -0.38862180039913      0.84998313482205
  C          -4.04348247950611      1.89567718306497     -0.84804189428199
  C          -4.74491045203858      0.74528655421066     -0.48036474320888
  C           3.27466504252672      1.66395367761557     -0.87806001392178
  C           4.24886360701510      1.01128485829957     -0.10682990341643
  C           3.87280574382273     -0.00731235760545      0.75517960511118
  C           0.40271742842406     -3.48643808018012      0.20676831366483
  C           6.56978698933848      0.87714630814937      0.45101281556516
  H          -5.68362690451285     -1.34554030986167      0.20875680347337
  H          -5.63289095895578      2.86040490436700     -1.31093514830785
  H           4.58903305696762      2.78384211809134     -1.65955412802827
  H          -2.11335302800111      2.82252433569328     -1.04337924548692
  H           1.22350648090434      1.81143882516447     -1.37921617945458
  H           2.25932834767101     -1.17842914872103      1.52597402228910
  H          -5.82765606604886      0.72345169254151     -0.55335652116400
  H           4.60953735198762     -0.51103210796895      1.36369619323900
  H           1.09931677821864     -4.16510654072302      0.69467453930811
  H          -0.59028973128318     -3.93056450262635      0.17255712323083
  H           0.75781056701364     -3.26357599327847     -0.80379194305275
  H           6.65486487637563     -0.18897632873184      0.22460827735431
  H           7.48190966412770      1.38690248956148      0.15098565310897
  H           6.41215527839286      1.01031763719837      1.52454360066848
