29
Coordinates from ORCA-job 5541 E -802.721699804111
  O          -0.23366620230764     -1.22234237832050      0.52016131050334
  O           2.26472130993179     -0.07844783539777     -0.17518386185809
  O          -1.74360152572897      1.19820220528400      0.08150567488682
  O          -0.85894856577404     -2.90718390032670     -0.84152416854511
  O           3.30046362861689      1.81020062521896      0.47169550661796
  O          -3.56314140311088      1.79624430653142     -1.09641016965080
  C          -0.05293226438153     -0.34811264736789     -0.61275571195433
  C           1.02372059591125      0.64182023308367     -0.23548408750165
  C          -1.35878461779712      0.31929303166007     -0.98853224622975
  C          -0.62841012736944     -2.49010618219366      0.26417792526257
  C           3.34507168151406      0.63644467755150      0.20889377362072
  C          -2.89085237429402      1.89036484062951     -0.10323368826070
  C          -0.73358962343177     -3.28085156865118      1.53776674930707
  C           4.57282188122514     -0.22990797379751      0.25759915030018
  C          -3.18434440897489      2.76818536806124      1.08100478219284
  H           0.26992058548889     -0.94831765156226     -1.46438581800829
  H           0.81613782992246      1.10371136586008      0.72771045807952
  H           1.09530839597854      1.43048412601628     -0.98665743296949
  H          -2.13492182685772     -0.42608131412824     -1.15520753658015
  H          -1.23855820055687      0.89386543604897     -1.90888216538370
  H           0.23753744608953     -3.31122884753748      2.03393869700815
  H          -1.43311132216586     -2.79466446725555      2.21913418515390
  H          -1.06976875029715     -4.28905661494065      1.31309382132377
  H           4.43147695530966     -1.02851753632800      0.98757006519801
  H           4.73756359378821     -0.70008551191005     -0.71271082237020
  H           5.43267396334179      0.37474753260096      0.53157281402438
  H          -3.24755906992523      2.16321572154096      1.98647208054366
  H          -2.37213192138488      3.48300013082984      1.22206178136972
  H          -4.11940966276021      3.29637082879999      0.91780693391964
