21
Coordinates from ORCA-job 5610 E -441.383195707396
  O          -3.60995473278223     -0.04483598978223      0.43577691718741
  N           4.20954316671469      0.01651179267594      0.33657655522859
  C           1.96218736832542     -0.00268443182537     -0.66418767314668
  C           0.47884028021185      0.00067144029337     -0.40926011951207
  C           2.77692235530647     -0.02663655052764      0.63135033084855
  C          -0.23373639609729     -1.18992546633985     -0.26013717946104
  C          -0.22183568365026      1.19576540241761     -0.26579538233762
  C          -1.59136365560052     -1.19663204981819      0.02148900748567
  C          -1.58214221430772      1.20891979159243      0.01600386952177
  C          -2.27100128118048      0.00913252371538      0.16163659882181
  H          -3.96037647727928      0.85033444146413      0.50307605969434
  H           4.75268963691317      0.05644486758501      1.19090655926183
  H           4.49601208470318     -0.82171408453668     -0.15751590905497
  H           2.23152973239308     -0.87629713740225     -1.26676862427643
  H           2.25555356775332      0.87907507738523     -1.23777213800474
  H           2.46974667413031     -0.90038763727590      1.22491842195679
  H           2.52633118802285      0.85760808972856      1.22308164270787
  H           0.28414572949931     -2.13564615206901     -0.37190271867483
  H           0.30226623305014      2.13748320071714     -0.38013675729757
  H          -2.13768592019448     -2.12407416011981      0.13034224746120
  H          -2.10794865593152      2.15234703212214      0.11758329159011
