33
Coordinates from ORCA-job 5634 E -581.573133388037
  O           6.32375281950143     -0.81513856922828      0.02871951454379
  O           5.38068535163884      1.18756320611083     -0.03416704908781
  C           0.16121968391592      0.42275195405871     -0.01356025938233
  C          -1.17683332784716     -0.31136949659959      0.01057710872205
  C           1.36711371457058     -0.51271862363976      0.01780380121562
  C          -2.38286580280568      0.62379325312098     -0.02123414613340
  C          -3.71988435288171     -0.11300721865407      0.00385385009140
  C           2.70056688726891      0.22928891454102     -0.00601082604540
  C          -4.91580541511033      0.83169272108032     -0.02856588256679
  C           3.89564379646501     -0.71417469027688      0.02527819712675
  C          -6.27111496985664      0.18793037695514     -0.00633167838860
  C           5.23342546959684      0.00088977116356      0.00296171870077
  C          -6.53300906181296     -1.11286882280237      0.03871001184270
  H           6.05214057865289     -1.74159775243565      0.05763470293020
  H           0.21483964617475      1.05022675991070     -0.91011563099595
  H           0.21445803621804      1.10837435164814      0.83937968922730
  H          -1.22903328424373     -0.99746827292457     -0.84252533213311
  H          -1.22963625208102     -0.93870683086184      0.90774150770348
  H           1.31330836124466     -1.14073198746774      0.91480402938301
  H           1.31408349969289     -1.19841370917283     -0.83595800011093
  H          -2.33013677757593      1.31018940236299      0.83144725867002
  H          -2.33012648684827      1.25067009306367     -0.91857556574926
  H          -3.77149775661207     -0.79732281417926     -0.84920607931338
  H          -3.77158072013477     -0.73735371338282      0.90173289500785
  H           2.76474056572993      0.85565365465097     -0.89885999723848
  H           2.76415429748911      0.91269096129084      0.84401253548387
  H          -4.85184231918474      1.52825256538598      0.81723609981276
  H          -4.85194477294425      1.46850891030794     -0.92021977270008
  H           3.86247770245827     -1.34448860944259      0.92182769505044
  H           3.86340717841098     -1.40136793796379     -0.82847692785647
  H          -7.10717494692055      0.88286107793518     -0.03040384662382
  H          -7.55204538348981     -1.47801609861983      0.05134813498736
  H          -5.75044495867940     -1.86080882593509      0.06461624382644
