44
Coordinates from ORCA-job 5757 E -850.696817051609
  O           5.07905597540585      1.21828030014214      0.12642888175639
  O          -5.85789556305727      0.13401208448619      0.40474082269360
  C           2.64143365750097      0.58464716428084      0.15576825149280
  C           1.96587163273352     -0.70274492965438     -0.35345775808312
  C           0.49847838539576     -0.79254962546714      0.03190887706104
  C          -0.24512550368286      0.42226876209061     -0.56165657304737
  C           4.07572912007025      0.33965043779114     -0.35799669870633
  C           1.92139379479235      1.78552597078484     -0.45295379854226
  C           2.93754941780102     -1.82361079162098      0.04414675073889
  C           0.41490241021098      1.75216925872040     -0.15659389500015
  C           4.33469281737862     -1.15804348320728     -0.05887094419751
  C          -0.18455190390431     -2.07388395018645     -0.43200123234892
  C           2.65898247090997      0.69475814200447      1.68762760721025
  C          -1.73806086866185      0.35856547250528     -0.27151002320157
  C          -1.59439148820795     -2.15380938593432      0.14099714259362
  C          -2.36909682490152     -0.86033968651734      0.02394026728902
  C          -2.53501215631476      1.50201951159955     -0.33879620207401
  C          -3.74335178470419     -0.89952234756211      0.24394678192822
  C          -3.90362023500103      1.46435861690621     -0.11853741981838
  C          -4.51393575374921      0.25093503258220      0.17638379218866
  H           5.23360654153233      1.02522788316928      1.05776271050176
  H          -6.27246057178795      0.99981104847246      0.32054143954022
  H           1.99393583737702     -0.63985971122231     -1.45090021190838
  H           0.41433799002059     -0.75167192330711      1.12498715605362
  H          -0.12453841064716      0.33634503852015     -1.65208481718295
  H           4.07611608844454      0.50356729561663     -1.43840801929915
  H           2.35400677357091      2.72145059607445     -0.09037897898511
  H           2.07177550571624      1.77040342660096     -1.53809351425088
  H           2.73963050141925     -2.16439117029342      1.06291226677342
  H           2.84606098054315     -2.69494414946479     -0.60381954511223
  H          -0.05595562642953      2.57832005842475     -0.69086825891912
  H           0.23019155807793      1.93497532932724      0.90547752211877
  H           4.95804629820469     -1.60868486557576     -0.83073184219536
  H           4.88789549195213     -1.25041881908880      0.87918600443321
  H          -0.21811230034359     -2.08558977002308     -1.52715416630805
  H           0.38739111676307     -2.95164434228527     -0.12388719727335
  H           3.15094742250322     -0.15638313032999      2.16109811142914
  H           3.19031765182140      1.60111957033272      1.98518772355125
  H           1.65710711808608      0.75874451030801      2.10703374028274
  H          -2.15966786168922     -2.95819707486732     -0.33599681521988
  H          -1.53054536469569     -2.42045161062602      1.20253322947551
  H          -2.08538022567779      2.45694492192381     -0.57135344730493
  H          -4.23201393895404     -1.83927782617417      0.47125009576097
  H          -4.49141917582193      2.37400116074373     -0.17794981589409
