26
Coordinates from ORCA-job 5780 E -688.340212222463
  O          -1.17699032541234     -1.73979106252722     -1.03910709966814
  O           1.62676925948555     -1.71691117461817     -0.62454310722948
  O          -2.84564332651986     -0.50083647059880      0.79077398380915
  O           1.66461011187177     -0.46900400726016      1.84659001204483
  O          -2.63245666478009      2.16949648025296      0.02356097942309
  O           2.58817603629980      1.79581676953407     -0.91919318818040
  C          -0.60487744358802     -1.05825430699837      0.06521475743016
  C           0.79567001131569     -0.60026755261454     -0.35627636329288
  C          -1.54217644535384      0.06268244970066      0.53364624942854
  C           1.46635338294187      0.31829479812343      0.66866284742376
  C          -1.77446746741764      1.16270989307138     -0.48903093980513
  C           2.78785112272760      0.87836316684781      0.14456599427383
  H          -2.10439328204464     -1.89509738606500     -0.81668436564745
  H           1.81838681478346     -2.13877673573730      0.22313705745473
  H          -2.83734067786964     -0.92921740182687      1.65344074831334
  H           2.25648547693518     -0.00267507644097      2.44672071836023
  H          -3.43145810494443      1.72248260896263      0.32930908495468
  H           2.18096768447848      2.59802143056869     -0.57380577763776
  H          -0.48369728230170     -1.75129832988811      0.91179189397088
  H           0.71622030860162     -0.05892183642076     -1.29972128294233
  H          -1.15950137139541      0.50811316058115      1.45613361298426
  H           0.80766377156016      1.16648759556439      0.89480183669150
  H          -2.17570509431933      0.72264766956140     -1.40749543220504
  H          -0.83353316942424      1.65342089717434     -0.73715784001484
  H           3.39721439988937      0.06856768657622     -0.25339869527139
  H           3.33568627448060      1.34707873447714      0.97486031533186
