23
Coordinates from ORCA-job 5826 E -405.464194554946
  N          -3.54386197829904     -0.56933544578719      0.25803678128955
  C          -2.21968113740326     -0.19047583306649     -0.24822121402680
  C          -1.20777665079616     -0.35059648512848      0.89812063256101
  C           0.22463410560957     -0.17035187778325      0.47348540241245
  C          -2.16812195294018      1.20551084207163     -0.87161808709366
  C           0.87786229568803     -1.17249814891584     -0.24573865624232
  C           0.92496007142758      1.00079063532259      0.75693894966471
  C           2.18822669141974     -1.00733094742624     -0.67414746221503
  C           2.23739641020147      1.17224839251755      0.33173911346129
  C           2.87346499062697      0.16848380627018     -0.38766174478660
  H          -3.83265855951360      0.07352423274107      0.98965077043062
  H          -4.23703825542838     -0.49770482058767     -0.47895489381078
  H          -1.96149951958671     -0.92179640237301     -1.02104232609058
  H          -1.45262433963291      0.37366970133002      1.68213148053163
  H          -1.35245939504011     -1.34464099941549      1.32612925651254
  H          -2.40666319195635      1.96731031871754     -0.12310352098666
  H          -1.18057653874397      1.43009754552944     -1.27848415675683
  H          -2.89590351885816      1.28995262428584     -1.68172527213914
  H           0.35300262261099     -2.09464242528320     -0.46749781611421
  H           0.43524170058492      1.78844371470658      1.31740683043384
  H           2.67746619315248     -1.79861486256745     -1.22831036346078
  H           2.76320093722918      2.08978182381964      0.56457975870347
  H           3.89593101964792      0.29820361102223     -0.71856446227773
