28
Coordinates from ORCA-job 5877292 E -616.050012516503
  O           0.48813135860168     -2.04947419386667      0.24140623525947
  O           2.71869453710401     -2.26642919290046     -0.08752042943059
  C           0.34930238840510      0.24075923120316      0.20276626939578
  C          -0.06647607793119      1.67703382870035      0.27629638767807
  C           1.64563849711775     -0.08914066276254      0.00888871822888
  C           0.90961926832079      2.56688664758530     -0.51630016742699
  C          -0.40160021069284     -0.98669250956194      0.37424288292707
  C           2.69892591682121      0.88630636835847     -0.16142954110317
  C           2.35534112255502      2.16072595606970     -0.37936866071833
  C          -1.68883143313111     -1.25201157279286      0.62089680743857
  C          -2.78976720570896     -0.25682716860959      0.79776767786338
  C           1.76500182155846     -1.55152198272804      0.03495417548884
  C          -3.61742822806126     -0.04770230948914     -0.48116023927061
  C          -4.77636341109662      0.92251768997809     -0.27436828314633
  H          -1.07826347663944      1.82676084321669     -0.09678165984205
  H          -0.07600497207066      1.97563393137034      1.33250973492136
  H           0.64959413020612      2.52283055726772     -1.58286566822653
  H           0.77458090905690      3.60799676436755     -0.21875994039256
  H           3.72986520334586      0.56066252621538     -0.12411864172063
  H           3.11438426018616      2.91706643485397     -0.53710707140430
  H          -1.95734543157608     -2.30184968254877      0.66795861860519
  H          -3.45665580099715     -0.61332229312946      1.58929682328430
  H          -2.40294808751710      0.70362018183758      1.13856367842745
  H          -2.95612485759734      0.31859445553375     -1.27186910591056
  H          -3.99549576082674     -1.01433244153194     -0.82614709049436
  H          -5.46456610177276      0.55654037317358      0.49133227171141
  H          -4.41651103862533      1.90335959423681      0.04697300721911
  H          -5.34546031903443      1.06182762595295     -1.19507978936188
