24
Coordinates from ORCA-job 5962 E -496.970673148880
  O          -2.90562679209961     -1.53855213450304     -0.53336886446811
  O          -3.25307716259517     -0.02062349821077      1.04185890605160
  N          -1.57525988260967      1.78581973275711     -0.15111767817061
  N           4.94780701263674     -0.38075520090775      0.29431270389868
  C           1.17837872991119      0.29605414352889     -0.33358379411313
  C          -0.13185179690182     -0.27525082012278      0.20100678296914
  C           2.41044829292211     -0.36605134359624      0.28033433207375
  C          -1.38805879488854      0.37343003985643     -0.42599531192816
  C           3.72703310528170      0.20609306999711     -0.25136012042348
  C          -2.60930198534105     -0.37616514173716      0.09654803077482
  H          -2.33671463119747     -1.65780839178986     -1.30496735539912
  H          -2.03550389738454      1.89811435449757      0.74557789380307
  H          -0.69764902055207      2.28713150802012     -0.14070771418935
  H           4.98258321660045     -0.26607803389476      1.30116461983031
  H           4.98160307059596     -1.37706479345903      0.10903069051849
  H           1.20685324878616      0.18128529260737     -1.42321926701679
  H           1.22530056207208      1.37238191635279     -0.13762113417109
  H          -0.15007159241925     -1.35448117440406      0.01349233740755
  H          -0.18593635665991     -0.14366305427740      1.28577736901947
  H           2.38331307028761     -0.24997484830365      1.36967729605226
  H           2.38394127938582     -1.44419999264959      0.08487822258439
  H          -1.33233328804450      0.23309848558871     -1.51452434922463
  H           3.75792326010526      1.28275317443032     -0.05810589075518
  H           3.75812135210853      0.09239371021967     -1.33933270512388
