11
Coordinates from ORCA-job 5971 E -608.277323133332
  S           2.60112499351470      1.11005455290850     -0.77185727060097
  N           0.70440590083064     -0.54398775233851      0.37558043648805
  C          -0.65860579508998     -0.74135761944607      0.79140889166639
  C          -1.60242456324975      0.22080704390196      0.13027976769761
  C          -2.64843611186969     -0.15383790193067     -0.59102612824949
  C           1.48560037056011      0.19828082897492     -0.12497938353636
  H          -0.94251782572702     -1.77155244071691      0.57039847223862
  H          -0.69089650644885     -0.62420084468778      1.87978503831000
  H          -1.37897148039146      1.27343249518870      0.27453121695858
  H          -3.31445377494350      0.57113019754188     -1.04074291585465
  H          -2.87891120718518     -1.20031955939601     -0.75679712511778
