24
Coordinates from ORCA-job 5984 E -687.151197949113
  O          -0.47265540117620      0.42854257589749      1.75425801863869
  O          -1.98212341768648     -0.03753862832260     -1.52444637962148
  O           0.28563332573477     -1.88008726387210      0.45410633460719
  O          -4.30137992377538      0.63619608646664     -0.16608091824685
  O           2.71124896325881     -0.89866021119176      0.53915024011468
  O           3.69566836581673      1.39664262968654     -0.38797700921065
  C          -0.56996283993039      0.34845902689941      0.34379356836797
  C          -1.97805221250892     -0.04342272688929     -0.10400343221152
  C           0.47409539701711     -0.63901676769960     -0.19443339110377
  C          -3.02983754615495      0.92398125238538      0.42221581899758
  C           1.89809172345318     -0.16096051307032      0.01952467149844
  C           2.30680329088616      1.21958925202679     -0.43259674729058
  H          -0.37099758201822     -0.48103499647915      2.07081165348090
  H          -2.90785046905086      0.02523882548946     -1.79709455031901
  H           1.17035511374402     -2.18996528268386      0.70959387727079
  H          -4.68446471478039     -0.12750310419378      0.27987351044381
  H           4.05632988015780      0.64645404759562      0.10967068420144
  H          -0.36461186850696      1.34581094290052     -0.05125677224553
  H          -2.19711930753406     -1.05412533124034      0.27073837139776
  H           0.32208409305366     -0.74025257871966     -1.27691992926711
  H          -2.78290044481851      1.94022776973516      0.10899182963606
  H          -3.07091901494126      0.89510217666240      1.51242394318813
  H           1.79474135775417      1.93764450851637      0.22501699898293
  H           1.93693723200616      1.39702231010066     -1.44879339130987
