29
Coordinates from ORCA-job 598515 E -559.057753293614
  N          -3.17117374453494      0.77076598326410     -0.59919605784177
  C          -0.05880050953141     -0.45997981726398      0.65051764861792
  C          -1.13436009114980      0.35174662143035      0.25311749052331
  C           1.20281192064919      0.14886868823957      1.21443246047217
  C          -2.28942725789112     -0.24432681890610     -0.30837357172406
  C          -0.18490315016982     -1.82735951624220      0.47037392593553
  C          -1.36918626443817      1.76568420559426      0.28272062790295
  C          -2.40806822809361     -1.62067731323711     -0.48628951743623
  C           2.07655776546720      0.71616852257404      0.12861929201447
  C          -1.33862562899384     -2.40133434266157     -0.08730313013800
  C          -2.61216959614035      1.97756191497766     -0.24048355227031
  C           3.31484696241649      0.34978520067124     -0.20570729007021
  C           4.03098343111886      1.01703900084219     -1.34812578227551
  C           4.10893011131028     -0.72804606056457      0.47656335957961
  H          -4.08208884635132      0.65086072664424     -1.00265069289353
  H           0.93128106042133      0.95001780318322      1.91088155351528
  H           1.73585408875999     -0.60184483697314      1.79571352339051
  H           0.63194016997327     -2.47436581615790      0.76712425962581
  H          -0.70271913578239      2.53054956001644      0.64345356685388
  H          -3.29829162635425     -2.06247894310485     -0.91604534803662
  H           1.60824653152814      1.49933272637154     -0.46114269633256
  H          -1.39017162472471     -3.47614905983922     -0.20505537394195
  H          -3.15187562908855      2.89767913181235     -0.39037473782927
  H           4.96521992227804      1.47745015249895     -1.01000855905262
  H           4.30371750628050      0.28630294310906     -2.11676792494052
  H           3.41785290161347      1.78888186753026     -1.81344047509147
  H           3.57544564565855     -1.20472976043337      1.29576430526355
  H           4.38854182355609     -1.50573301148273     -0.24138991805694
  H           5.04448649221284     -0.32154075189275      0.87398961423658
