52
Coordinates from ORCA-job 6010 E -930.498550752005
  O          -5.02167236859206     -1.03187635184935      0.04467191069958
  O           5.74077060574196     -0.00100220447805     -1.15187862589961
  C          -2.57375090361402     -0.50811160632485      0.17223670196198
  C          -1.80034941054777      0.76884811654302     -0.20040850577104
  C          -0.39619296401929      0.83198766867341      0.38999761871589
  C           0.40031338172577     -0.41038661085406     -0.06749054148699
  C          -3.96744771157539     -0.22151564983210     -0.48131628435010
  C          -1.79209015365228     -1.71121688278706     -0.35254697794192
  C           1.87268015657560     -0.43930847303314      0.46428164004690
  C          -2.78419042829616      1.90837139809109      0.09654718787482
  C          -0.35904815128616     -1.72311334301638      0.19759714509941
  C          -4.17778431413246      1.29494257013434     -0.18439416989835
  C           0.33240537023975      2.10500156889142     -0.03024960845969
  C          -2.76859401994052     -0.64287022598541      1.69330006569702
  C           2.53299508892189      0.89741135420415      0.15417732696023
  C           1.76012189252808      2.13321418527726      0.51238220624148
  C           2.62948544447319     -1.57928272370746     -0.24869474394356
  C          -4.01479296846182     -0.50028045631359     -1.97915521143505
  C           1.92355791958631     -0.65695783698476      1.99222774129856
  C           4.14686579945104     -1.47771723302790     -0.14243225376196
  C           3.75851202960354      1.00044338423913     -0.38370080613955
  C           4.64849128279814     -0.13815523342716     -0.63177873037754
  H          -5.14815242301651     -0.81529866934177      0.97402254803004
  H          -1.66300138889049      0.73848791271860     -1.28773888245766
  H          -0.47268312248982      0.83370248838578      1.48237748455196
  H           0.48926113656707     -0.31360282808188     -1.15841171555632
  H          -2.29800505086990     -2.64564514840074     -0.09538029771523
  H          -1.74419270221186     -1.66744263240140     -1.44282383902888
  H          -2.70025708875770      2.22410426033169      1.13908962894058
  H          -2.59008131099092      2.78885686088444     -0.51550048208563
  H           0.17837736600821     -2.55504362364917     -0.25829894578697
  H          -0.38221988609900     -1.92915510921553      1.26877870174167
  H          -4.68029427723121      1.77965064745719     -1.02140720123950
  H          -4.83912540200780      1.40811010818021      0.67652441322001
  H           0.35720035362832      2.15867694450407     -1.12434565702379
  H          -0.20903431801012      2.98703922498247      0.31781137499509
  H          -1.82209885540370     -0.65746197897688      2.22839155678413
  H          -3.35342387733307      0.17804863683311      2.11185052313741
  H          -3.28209726372611     -1.57791844340562      1.92240611410884
  H           2.29567882521881      3.01661356647271      0.16208052760251
  H           1.71504775963281      2.20867456537632      1.60548789588038
  H           2.30044888184054     -2.54081921520584      0.14625879576132
  H           2.35486223557141     -1.56352430902772     -1.30802264380877
  H          -3.90318761543728     -1.56590003260579     -2.17628900655045
  H          -4.98502013680336     -0.18565152797234     -2.36445961205519
  H          -3.24090087219204      0.04143360676073     -2.52195204767384
  H           1.34958806061041      0.09537773791116      2.53161818857243
  H           1.52630190837256     -1.63631615609653      2.25760241166095
  H           2.95111932071084     -0.60403231647941      2.35286942714303
  H           4.47104773209836     -1.58299077869839      0.89863399700746
  H           4.64500900993437     -2.26490774575890     -0.70864762925431
  H           4.17728442374985      1.97432354008689     -0.61308671403178
