29
Coordinates from ORCA-job 6029 E -910.985787616108
  O          -1.28690821280572     -0.55666617740183      0.94332823135179
  O          -1.13506376267637      2.13523465402541     -1.44610523490992
  O          -3.35989372362235      1.72970851318886      0.09888930815619
  O          -2.51393105704948     -3.02803627310425      0.64999167693934
  O           1.49315121115583      1.90042872825127      1.55854504732929
  O           4.69545150009146     -0.79384964853656     -0.21996303349328
  N           0.80371402075625      0.18519147617005      0.18684158381012
  N           3.05984043377090      0.53601385265353      0.63223876468876
  C          -1.35293606267513      0.85011248524896     -0.94293192780989
  C          -2.80112543446853      0.56842256992264     -0.51215041375410
  C          -0.58830693506820      0.53803787641042      0.35316634808207
  C          -2.64296190749532     -0.61641551518880      0.43783439349089
  C          -2.84340231617574     -1.97069551485760     -0.22483691003008
  C           1.76706923592905      0.95352802118305      0.85419352394701
  C           1.15835291566768     -0.91249115002300     -0.56112490662970
  C           2.42872382130521     -1.30353905397629     -0.74373316189095
  C           3.50981529720323     -0.55401903844531     -0.12973812107667
  H          -1.74354873184141      2.72976759140119     -0.98284117671367
  H          -3.15499795108035      1.73771666470934      1.04112654155768
  H          -1.64879307714814     -2.83048440629196      1.03165638855466
  H           3.77263859750629      1.08389799083410      1.09437278439584
  H          -1.06030329648553      0.14255359555331     -1.72210116851911
  H          -3.44277299944495      0.33942441118942     -1.36245649569704
  H          -0.58927139157542      1.40713430170204      1.01164476273067
  H          -3.32208542523701     -0.53296150934085      1.29137806809648
  H          -2.24957664071680     -2.02067951508543     -1.14938717173778
  H          -3.89361200806440     -2.09419691068622     -0.49551970019114
  H           0.32947603050372     -1.45892759608289     -0.98625428560477
  H           2.67618486974121     -2.17074042342258     -1.33408671507274
