29
Coordinates from ORCA-job 606454 E -840.517559031027
  O          -0.01702856550181     -1.65786984007564      0.00785891071769
  O          -1.34306536831197      2.22603508222893      0.44548844849634
  O          -3.21726534981847      0.01659083981983      0.54490304513939
  O           4.46660633017635     -0.06774480330814     -0.15568218381130
  O          -2.06406627671517     -2.49195322494939      0.17050303846989
  C           0.39865808574488      0.69818723224599      0.19456365088333
  C           0.84880735633295     -0.61312672658030      0.04615487682347
  C          -1.02371211129962      0.93048602724838      0.30721338202150
  C           1.35888865608277      1.72343075081670      0.21588991683129
  C           2.20058077868280     -0.92144958951748     -0.07498426508928
  C          -1.88196797823393     -0.13484085379976      0.29864401550874
  C           3.12876264745475      0.11154424776769     -0.04759960917640
  C           2.69936358350410      1.44088512429623      0.09859773380260
  C          -1.38525573249836     -1.49646833994843      0.16242671613909
  C          -2.67565009007494      2.71462719801035      0.25462599891318
  C          -4.11015419206616     -0.40840042198284     -0.49146050624228
  C           4.96230711517099     -1.39052042338930     -0.30422901195796
  H           1.02555713161636      2.74452710491467      0.32813883644482
  H           2.48034220747656     -1.95724875397374     -0.18669196559082
  H           3.44312444923691      2.22532567849781      0.11605864700213
  H          -3.07677985279637      2.37663668993957     -0.70156428577579
  H          -3.33255057274873      2.39907413615752      1.06053093004952
  H          -2.57515151813546      3.79771468789361      0.24645052028191
  H          -5.11298169389045     -0.19303806408278     -0.12849058877049
  H          -3.92349191098698      0.15822019312339     -1.40990624012504
  H          -4.00292178913427     -1.47449793752463     -0.68293657558819
  H           4.70003906248702     -2.01019241318266      0.55772754549922
  H           4.57960778891707     -1.85611367370404     -1.21668967509249
  H           6.04342480932917     -1.29852192694154     -0.36963730580406
