55
Coordinates from ORCA-job 6072 E -1566.778721497876
  O          -0.16349877037764      1.33122993386585      0.18150538062517
  O           1.58113723619094      0.38782212156754     -0.87124488158638
  O           1.03919305455917      5.11682759758510     -0.80867723239067
  O          -0.96659900802260      4.78425564943731      1.17733690206764
  O           2.85864144883229      2.94886696547547     -0.98693058682097
  O          -2.23938119611663      0.76167725341999      2.09411034914657
  O           2.83472684931461     -4.11056688296372     -0.24046477052846
  O           0.86517775137804     -2.91864008405515     -2.18852137705165
  O           5.79965098822358     -0.56521476003899      1.08976634680444
  O          -6.23686531669199     -0.56433029621878      1.78968185148514
  C           0.87451251456464      3.94263254162441     -0.02604379127212
  C          -0.57926205604070      3.69476053462468      0.33851978331205
  C           1.46229799459655      2.78759389866375     -0.82136734991075
  C          -0.70104237012573      2.33657206551159      1.03872491502929
  C           1.21910670155069      1.48218608588051     -0.07675060862991
  C          -2.13800196090555      1.94929704270372      1.34074829076753
  C           2.50216796727035     -0.51009882601109     -0.38494832379003
  C           2.19818406439576     -1.86291037569054     -0.53907983727154
  C           3.70659220944334     -0.07272092767971      0.14687752550335
  C           0.89540025033218     -2.31483206730353     -1.14202551402963
  C           3.15259568492971     -2.79242655166615     -0.12197247284050
  C          -0.34856175508695     -2.00651966739366     -0.34105230177900
  C           4.62702180524746     -1.02345695362056      0.56808009783571
  C          -1.64779579498325     -2.26130762160274     -1.10348081529566
  C           4.35661335771102     -2.38241811589874      0.44305532093301
  C          -2.86434669552212     -1.79683339447339     -0.34543917551660
  C          -3.27617980161308     -2.43341179141774      0.83023268421182
  C          -3.62378529482515     -0.71764306493247     -0.79094108033950
  C          -4.39563951497874     -2.01637729676651      1.53150955166329
  C          -4.75293657659275     -0.28851841511155     -0.10123420261139
  C          -5.14132685473036     -0.93741196495614      1.06453641485826
  H           0.66968159647288      5.85268028864964     -0.30552157835277
  H          -1.92371318364493      4.87934041540675      1.16212618294046
  H           3.00638886795340      3.83664793896618     -1.33526805925982
  H          -2.20490845007951      0.00591655773715      1.49426818267032
  H           3.55975600533936     -4.65123014894825      0.09098348050240
  H           6.37722188519267     -1.30824259640305      1.29714348555811
  H          -6.66254881598241      0.18948796911839      1.36657592820025
  H           1.44144450207343      4.03835541266811      0.91069654633070
  H          -1.17931361199815      3.68269390359982     -0.57880165009353
  H           0.95702961205406      2.71791773439250     -1.79228788503099
  H          -0.13738379623543      2.36432844115483      1.98095568102220
  H           1.78122165018237      1.47172123315366      0.86488076723383
  H          -2.69219885882345      1.87035006635735      0.39827524118729
  H          -2.59157690386514      2.74036286344624      1.94273043246941
  H           3.95270866232287      0.97810752159486      0.17861912269820
  H          -0.29371158765304     -2.62119131339967      0.56587373645117
  H          -0.29627679447832     -0.97242471215078     -0.00136160413838
  H          -1.59614701423507     -1.74523114355140     -2.06313667575910
  H          -1.72794171614756     -3.32497047440198     -1.33726635358873
  H           5.07792387698711     -3.11983926081466      0.78024771953250
  H          -2.71139674387198     -3.28032913885558      1.20196925732375
  H          -3.33172324197949     -0.20430440354614     -1.69914871920436
  H          -4.70460142042355     -2.51345792783713      2.44109663286926
  H          -5.33002743108724      0.55168914110443     -0.47262696414072
