34
Coordinates from ORCA-job 6076 E -1454.772052332095
  P           4.57687389024361      0.34046937601937     -0.26777318087610
  O           0.68553361426561     -0.04584189020496      1.54859028663363
  O           3.33411953549407     -0.53328757523843     -0.80512954682978
  O           4.29401511074040      0.53777434423429      1.28168706152169
  O           1.26996638060525     -2.41948017598391     -0.52431955806095
  O           4.28732006189153      1.80223810972371     -0.85866169821448
  O           5.87096259360312     -0.22951615454391     -0.60293336089428
  N          -1.19784578780403      0.07264993772327      0.17244739219538
  N          -2.40336397678988      1.83545468803584     -0.52494035050280
  N          -3.01027973929211     -1.51156810294558      0.55686595999883
  N          -5.15908442006234     -0.56323843569108      0.05699469338606
  N          -5.45499967803383      1.59769697604229     -0.72554940256705
  C           2.07019529052430     -0.14190113996871     -0.27343573989194
  C           2.05574798777694     -0.22031711058171      1.24375265002525
  C           0.91059488935141     -1.05930841537512     -0.62780723484121
  C          -0.07229090410066     -0.73989540339288      0.53660335147655
  C           2.98209046696699      0.82028362229624      1.82941631467067
  C          -2.51702164379202     -0.32949830701212      0.19688371324063
  C          -1.20901384286460      1.38203319009470     -0.26819915769124
  C          -3.24013063002321      0.77428074571726     -0.24155659461906
  C          -4.63431266888143      0.61417274060393     -0.30444132928501
  C          -4.33735183631937     -1.53826158717812      0.45864838016102
  H           2.09539988290536     -2.55512746886810     -1.00794806757218
  H           4.91321646476690      2.03661053100026     -1.55494852153031
  H          -5.08439716057572      2.50968593859102     -0.92292567992582
  H          -6.44809758811556      1.45373524941004     -0.67965585472753
  H           1.84206769732917      0.87972237546563     -0.59293609236989
  H           2.40362836086738     -1.21321263934449      1.55008680337417
  H           0.45831163238858     -0.83645960686077     -1.59720291312978
  H          -0.47187874420842     -1.67651571586805      0.92587448621064
  H           3.08427993896307      0.74501384163516      2.90898333074370
  H           2.67682196941443      1.83357561128608      1.55966197379304
  H          -0.29842563932646      1.95214699941645     -0.35564950112995
  H          -4.81829350790849     -2.46867154823761      0.73955738722810
