27
Coordinates from ORCA-job 61007 E -577.961340037641
  O          -3.99153737885838      0.20545002435258     -0.50413825542546
  O           4.33462509711119     -0.01002808521214      0.95506291610869
  C           1.53257125285933      0.19520336681713      0.81197781661475
  C           0.05862602715819      0.18103311459736      0.50402759482500
  C           2.37691260687595     -0.17649118842746     -0.40717694144577
  C          -0.57311620612423      1.29761989200394     -0.05095744717530
  C          -0.71426980857758     -0.95297332922980      0.72150708926240
  C           3.87136945201768     -0.19295768987933     -0.14724514118464
  C          -1.91679311060109      1.28035782827644     -0.37741392981354
  C          -2.06912637104096     -0.99258114651272      0.40038916696854
  C          -2.67647457184605      0.13049676713128     -0.15475570430454
  C           4.75509645980960     -0.44680740830363     -1.34944254804503
  C          -4.80618020585377     -0.93282989520020     -0.28911326829396
  H           1.83649312748436      1.18250948870839      1.16526557379286
  H           1.75746936010620     -0.49888150700080      1.62288148980382
  H           2.09213620868396     -1.16707488322620     -0.78083895631605
  H           2.17775977806850      0.50600479427360     -1.24080932686157
  H          -0.00033244399700      2.20175073584836     -0.22399990229795
  H          -0.25618147601695     -1.83281172888598      1.15894494385599
  H          -2.40326000281354      2.14928530840306     -0.80061031011911
  H          -2.63255256964049     -1.89363061695689      0.59241786769509
  H           5.78871345209622     -0.56918662663499     -1.03326531413081
  H           4.42244076050304     -1.33165833819834     -1.89692640232414
  H           4.68558605751858      0.39915233983107     -2.03902545760200
  H          -4.84854957846829     -1.19950263342339      0.77143937789829
  H          -5.80157908972432     -0.65977161736796     -0.63177144454820
  H          -4.44932682673017     -1.79406596578340     -0.86249448693736
