14
Coordinates from ORCA-job 61020 E -270.511102448331
  O          -2.63028617330189      0.18480059890884     -0.23120568477541
  C           0.95633664283524      0.04319059068714      0.01132934422128
  C           2.11581537442401      0.99315988010970      0.05100793304117
  C           1.33728967985326     -1.40592513036826      0.09322830447087
  C          -0.30099768795932      0.50819615711823     -0.09001843135054
  C          -1.51935397705196     -0.29494976798923     -0.13935197929185
  H           2.68971883360669      0.85721788069782      0.97292018428140
  H           2.80406576680326      0.79041620766297     -0.77542154419867
  H           1.79547825146009      2.03203789210225     -0.00967042205675
  H           1.89288415836735     -1.59117065006895      1.01724232138359
  H           0.49192529916736     -2.08692757417538      0.06175657196206
  H           2.01232815253822     -1.65862946681220     -0.72971503178703
  H          -0.47177175115517      1.57848940572656     -0.14298518378242
  H          -1.39939556958714     -1.39373202359949     -0.08891838211769
