27
Coordinates from ORCA-job 61048 E -577.992583741861
  O          -1.07394564123569     -0.05938852278790      0.16343100869737
  O          -0.23227618143907     -2.11904963727268     -0.15903694840448
  C          -3.39929797806757      0.53110041133006      0.27100338069401
  C          -2.40502643253644     -0.61129232989830      0.15457845501611
  C          -3.29885478620717      1.48785532424419     -0.91690265291447
  C          -4.81151251000108     -0.03943196616931      0.41101911518186
  C           1.26854669942744     -0.26997800587637      0.01590935336444
  C          -0.06380859712640     -0.93237028055082     -0.00598827204012
  C           2.39889512860103     -1.06752188519043     -0.16289353401446
  C           1.41433477771826      1.10446988662175      0.20711146385779
  C           3.66242593182220     -0.49683254975283     -0.15174010688647
  C           2.68056606828011      1.67250648336274      0.21817764456059
  C           3.80483394652837      0.87396672907148      0.03874471357071
  H          -3.15675988393357      1.08384490659908      1.18524470708895
  H          -2.54900320135350     -1.17292576513982     -0.77151194702517
  H          -2.49761033610843     -1.31147721910853      0.98691048310036
  H          -3.99380630767878      2.32197725142274     -0.80270305752847
  H          -2.29223345256711      1.89429177164941     -1.01552841854015
  H          -3.54695870340981      0.97136276144051     -1.84866128942073
  H          -4.89642992260059     -0.69504047620223      1.28025980302731
  H          -5.54184699079054      0.76348704199058      0.52313240121460
  H          -5.08851941984769     -0.61781503369653     -0.47462548230104
  H           2.26495936203537     -2.13042051840773     -0.30914550394247
  H           0.53718190925050      1.71903094168552      0.34738946330867
  H           4.53702786674682     -1.11897172105908     -0.29117160724636
  H           2.79114784741298      2.73891529369984      0.36681267356237
  H           4.79155480708036      1.31951910799466      0.04759715401925
