29
Coordinates from ORCA-job 61211 E -484.055482408849
  N          -1.67264720078786      0.05874123614410      0.07526906883566
  C          -0.67033480763411     -0.36514081004218      1.04498858107329
  C          -1.65998494367099      1.50988555209633     -0.10735122353033
  C          -3.00035870713951     -0.45740226639919      0.39872527216182
  C           0.74507354724179     -0.20409094267860      0.54365978835360
  C          -2.24878083079021      1.94854847078307     -1.44125706557327
  C          -3.17138737897818     -1.93141077813393      0.05336701323854
  C           1.08518708360509     -0.59623750809581     -0.75077844893872
  C           1.73993609979690      0.30905963621772      1.37077089898382
  C           2.39221544675217     -0.48140507683577     -1.20346682438825
  C           3.05174331239996      0.42244900994805      0.92224779044484
  C           3.38174557699289      0.02689606676493     -0.36735968027571
  H          -0.78055696288280      0.17290094460894      2.00321830499661
  H          -0.84068801568281     -1.42051333074248      1.26712649632523
  H          -2.18103074073820      2.01537756269275      0.72517086395320
  H          -0.62001959039113      1.83586348486181     -0.06412683438625
  H          -3.23987477847283     -0.28744975345983      1.46383797763895
  H          -3.73009516932084      0.11644632963719     -0.17237198308684
  H          -3.29905767238819      1.67053869537279     -1.54283789987689
  H          -2.18592305086006      3.03410451630124     -1.54238143753355
  H          -1.69735610752499      1.49089075283218     -2.26386512989044
  H          -2.48984099158816     -2.57004051263206      0.61733320312436
  H          -4.18851231749941     -2.25727870918228      0.28130407055172
  H          -2.98396586733511     -2.09433795621714     -1.00898320066200
  H           0.30802521608782     -0.97610037903476     -1.40087596253554
  H           1.48434374665243      0.62851567887930      2.37455876944001
  H           2.64137109257187     -0.78846604095871     -2.21168420274441
  H           3.81260253187248      0.82638697320409      1.57830603490736
  H           4.40065747971200      0.11821815406825     -0.72160724060680
