35
Coordinates from ORCA-job 61304 E -582.802503702369
  O          -1.82536275788197      0.22602434721161      0.26116149558986
  O          -3.11125137195645     -1.55243625201895     -0.22922014462659
  C           3.10737080070047      0.45248912040505      0.15251768427437
  C           1.87106091158010     -0.41591537652942     -0.06767427765198
  C           4.41870435736380     -0.28029140016845     -0.11778954663525
  C           0.56362892905268      0.32514155576367      0.20520578120634
  C           5.65693595800557      0.58610047705686      0.10203079940886
  C          -0.64566164201653     -0.55624747256921     -0.02018374950457
  C          -4.16653100181035      0.55088019368841      0.34961061873026
  C           6.96276478541925     -0.15573345397784     -0.17064189716825
  C          -3.00922863266662     -0.39776435020179      0.10228613640430
  C          -4.41440645224919      1.36749947070795     -0.92900638613778
  C          -5.41438186354138     -0.21023358876237      0.78621905046010
  H           3.04694525478481      1.33683683081983     -0.49173261148790
  H           3.10698438583190      0.82684659363595      1.18237538770576
  H           1.87135760645884     -0.78979586935497     -1.09756321059288
  H           1.93142620268742     -1.29994522588383      0.57673652612511
  H           4.47868673625630     -1.16535032250090      0.52608244891898
  H           4.41882196962964     -0.65507639210323     -1.14786341836490
  H           0.55160991623386      0.69206669852866      1.23569870232082
  H           0.49164857002327      1.20390479521672     -0.44241052571229
  H           5.59603678198967      1.46989036023595     -0.54186206499892
  H           5.65571387979489      0.96001980473546      1.13138562910265
  H          -0.63854190378190     -1.43001121832847      0.63440639625464
  H          -0.69926151378942     -0.91633453794301     -1.04966907782300
  H          -3.85428828344441      1.23994208971494      1.13812958687220
  H           7.06385553995872     -1.02618375876543      0.48256008941413
  H           7.00381516858023     -0.51230493454739     -1.20298985961530
  H           7.83015170712871      0.48642832860056     -0.00572864723299
  H          -5.22531466669069      2.07926728221787     -0.76603954009696
  H          -3.52402004750381      1.92410714858431     -1.22295865356160
  H          -4.70042919896321      0.71004643540608     -1.75260463999618
  H          -5.23870680529754     -0.76826461531001      1.70689272435628
  H          -6.23666022313538      0.48638461945210      0.95872879703361
  H          -5.71728209675128     -0.92304738301675      0.01901439702906
