53
Coordinates from ORCA-job 61386 E -818.624330953279
  O          -4.30338646600854      0.33161989192678     -0.01150932541376
  O          -3.26345852652953     -1.65251698349177     -0.21668500994930
  C           3.13907521409900      0.42096229093145      0.05585262251772
  C           4.42665357721952     -0.39323517874113     -0.04219694577603
  C           1.87382044718878     -0.42519047814232     -0.05917885711365
  C           5.69233365958771      0.45233477557312      0.07378443294474
  C           0.58657968758095      0.38950684509766      0.03754474188743
  C           6.98005977412170     -0.36166450423829     -0.02481787216023
  C          -0.67407861903525     -0.46329593070431     -0.07641759528360
  C           8.24582539956820      0.48359060237293      0.09142196392004
  C          -1.94808915176186      0.36477088899708      0.02003857950097
  C           9.53464790442377     -0.32967940659974     -0.00694081528172
  C          -8.07995555747871      0.17679013037694     -0.15117001609124
  C          -6.65749577711178      0.72010477852716      0.03615714205256
  C          -5.58043857228691     -0.33652871725017     -0.09393826057474
  C          -3.21158830532460     -0.45563659935692     -0.08512080937285
  C          10.79367795351450      0.52538255143824      0.11042220259919
  C          -9.08614355087249      1.32847993923898     -0.15606822110244
  C          -8.45328444068981     -0.86005539600497      0.91129647170466
  H           3.12613348440162      0.96354819206607      1.00813380535890
  H           3.13495921177398      1.18655131471769     -0.72854523757183
  H           4.43041179126610     -1.15929603269372      0.74160466348075
  H           4.43980956119489     -0.93530000875988     -0.99466085979552
  H           1.88632091035452     -0.96849647143978     -1.01071945216988
  H           1.87665473704915     -1.18998043802089      0.72558212285817
  H           5.68825436832799      1.21870302525577     -0.70981828923913
  H           5.67920142185802      0.99406319395547      1.02652301786473
  H           0.57450343284105      0.93412383522515      0.98888172662070
  H           0.58319403497496      1.15391851861313     -0.74824022500933
  H           6.98395807883811     -1.12814638365565      0.75865488934958
  H           6.99318813845114     -0.90324134023875     -0.97762856666031
  H          -0.66955058377530     -1.00907747669051     -1.02344778716639
  H          -0.67953859763006     -1.22585682268465      0.70652773333365
  H           8.24261560295291      1.25029419091236     -0.69211193814181
  H           8.23329405419163      1.02548204309427      1.04428910030143
  H          -1.98960647631290      0.91499890840637      0.96529410786563
  H          -1.98257848686897      1.12889368992456     -0.76256341787439
  H           9.53714397080603     -1.09506933608508      0.77642251932981
  H           9.54640589554524     -0.87055996306991     -0.95919577881443
  H          -8.12428666504407     -0.31240539880563     -1.13199782521840
  H          -6.46806850602115      1.49754440249424     -0.70921408296460
  H          -6.57604652736690      1.19917073261390      1.01745251675797
  H          -5.64340086947135     -0.85942693963192     -1.05102564439579
  H          -5.63089554889037     -1.08564798320489      0.69594852986209
  H          10.82272755881662      1.05229845124442      1.06762171520696
  H          11.69866924027056     -0.08103688724706      0.03691246656624
  H          10.83220352660466      1.27839141898054     -0.68091511429929
  H          -9.08106914726113      1.85016884107503      0.80517853531740
  H          -8.85116176280294      2.05886989259824     -0.93320694197420
  H         -10.10045423383100      0.96407947595088     -0.33098409839345
  H          -8.37328230658703     -0.42955089355257      1.91383139888023
  H          -9.48263803661222     -1.19846816043997      0.77677015240301
  H          -7.81080392224845     -1.74081709085795      0.87327582932373
