12
Coordinates from ORCA-job 61503 E -343.595489567000
  O          -1.58575422451512     -0.87473097914746      0.72266302449098
  O           1.56220654011223      0.77427565099269     -0.00296550129783
  O           0.89050557577522     -1.33461492629222     -0.11440472887541
  C          -0.76661323630932      0.25535501521750      0.56367005120706
  C          -1.39962705375272      1.23074020012577     -0.43066005377816
  C           0.62617153981540     -0.18711202789586      0.11864548354854
  H          -1.04348570760659     -1.64542531080887      0.48913202050521
  H           1.19560120890604      1.64022977643104      0.22031630148446
  H          -0.65113106314773      0.75625041336753      1.53679099741692
  H          -2.41347027057630      1.45585530005784     -0.10191675603104
  H          -0.84985309486786      2.17301917675475     -0.49727816498503
  H          -1.44898721383324      0.78048271119728     -1.42261667368571
