19
Coordinates from ORCA-job 6163 E -857.463271980526
  S          -0.00004446609160     -0.59359860229446     -0.15097204355136
  O          -1.15386416612518      0.47152001754612      0.00188126976625
  O           1.15390550264190      0.47134533550578      0.00209402016830
  O           0.00003998859488     -1.14237159343381     -1.47379658243381
  O          -0.00021283900396     -1.49245641986326      0.96398346649405
  C          -2.51347490180195     -0.05722792592209     -0.07398698783095
  C           2.51344774066688     -0.05762329809300     -0.07342225113195
  C          -3.44936650075021      1.11388293162509      0.09401587833094
  C           3.44948128932358      1.11334442794616      0.09477619822448
  H          -2.63578060044626     -0.54289710022767     -1.04291967793370
  H          -2.63578724110561     -0.79569342950036      0.71934535346397
  H           2.63545347246228     -0.79607640520855      0.71996944497314
  H           2.63591130192105     -0.54334826428321     -1.04230704577260
  H          -3.29605414187343      1.59771851619552      1.05888945105973
  H          -3.29607326455140      1.84946838387172     -0.69592088780404
  H          -4.48104762122430      0.76095538130459      0.04340253320445
  H           3.29585084039510      1.59733898646504      1.05951878439430
  H           4.48111707313763      0.76022053503394      0.04463089104591
  H           3.29664853383060      1.84885452333245     -0.69532181466711
