19
Coordinates from ORCA-job 6184 E -311.030797056389
  O          -2.99076740952398     -0.87547331317820     -0.05550357111476
  C           1.18604889180507      0.43740198616589      0.01525624782903
  C          -0.20738392406661     -0.18485399495923     -0.01849359260716
  C           2.30867137500026     -0.59629224040482     -0.04220196937515
  C          -1.31848264574689      0.85338442992833      0.03838567578967
  C           3.70024302701762      0.02963722223829     -0.00802964699072
  C          -2.71462939911607      0.29466319708687      0.00804413588049
  H           1.29577484209506      1.13517940536073     -0.82332174409936
  H           1.29649048298484      1.03878352885213      0.92535369091573
  H          -0.32494735863230     -0.78594074303824     -0.92406893120032
  H          -0.32464040809669     -0.88103423999597      0.81623478782912
  H           2.19817310109029     -1.29258520319746      0.79555168320825
  H           2.19757051719079     -1.19600925852125     -0.95151425542774
  H          -1.24278826473816      1.47297093441556      0.94235734792157
  H          -1.24297623155814      1.56793776284790     -0.79256366620721
  H           3.84854381254997      0.60881698717677      0.90697008209576
  H           4.48184641470163     -0.73127485906499     -0.05015517750717
  H           3.84813924018321      0.70595425926459     -0.85382766653001
  H          -3.52116806313992      1.05922813902309      0.04960856958996
