25
Coordinates from ORCA-job 62322 E -678.259695943783
  Si         -0.00143844069411     -1.07578324258988     -0.03120379714813
  O           1.28923296222263     -0.14302666377481      0.40483969400147
  O          -1.28737541982111     -0.11439654065707     -0.41594322591961
  C           0.34337068937133     -2.05618516797899     -1.57601934690968
  C          -0.35114495294462     -2.13660753975330      1.45841056583943
  C           1.88876256857783      0.83532602471960     -0.43700612031837
  C          -1.88183999455850      0.82032823238667      0.47749119778675
  C           2.77206453474615      1.74181996972450      0.39579451239012
  C          -2.75590419895278      1.77844495099542     -0.30579381720468
  H           1.21448391762262     -2.70165764208047     -1.44324196644237
  H          -0.51022984989352     -2.68645949439172     -1.83416440681190
  H           0.53524101702275     -1.39589963484745     -2.42446502240408
  H          -0.53999976446286     -1.52211754657234      2.34124633415830
  H          -1.22531624647013     -2.76980983444357      1.29114894692841
  H           0.49941313836524     -2.78392517327067      1.68210990198666
  H           2.48193716265690      0.33626359891881     -1.21196924172926
  H           1.11363787424698      1.42147629907624     -0.94430585896026
  H          -2.48089940048674      0.28347227049073      1.22206198887470
  H          -1.10376829544587      1.37142017607751      1.01846828573110
  H           2.18248850382037      2.25763648233845      1.15563557403900
  H           3.54601940346684      1.16094599727537      0.89991938595866
  H           3.25503537075072      2.49042056462460     -0.23644630260915
  H          -3.23520839825513      2.49433637064758      0.36589103187060
  H          -2.16026419249247      2.33130041615251     -1.03421542725190
  H          -3.53263198839250      1.23240812693229     -0.84347688585578
