17
Coordinates from ORCA-job 62351 E -1046.970410851389
  S          -3.20137026066736      0.66646404876660     -0.11807462638217
  S           4.72386819486060      0.40344384890366     -0.02232063920597
  N           1.96526259771179      0.22085164196579      0.00395493564184
  C          -0.47534730509400      0.36877670014739     -0.04834577809768
  C          -1.76399339570265     -0.44125027801456      0.01084133848166
  C           0.75087551627567     -0.53364808162809      0.05861717437341
  C          -4.52927069758310     -0.56191071698155     -0.01800319577476
  C           3.15034726648800      0.25523703232765     -0.00452179004208
  H          -0.42683682750432      0.92840977425746     -0.98482270364910
  H          -0.45382983918498      1.09885289219607      0.76345384580611
  H          -1.82668368393385     -0.99377162373571      0.95213883674574
  H          -1.80033725787889     -1.16435971343414     -0.80834441826544
  H           0.75549036381154     -1.26391905380859     -0.75672412301451
  H           0.72844755258323     -1.09117291160514      1.00028901305657
  H          -4.49797948237287     -1.09777716515301      0.93123091345512
  H          -5.47084913042308     -0.01868101149345     -0.08498540148723
  H          -4.47148932556171     -1.27081876524438     -0.84460387947250
