22
Coordinates from ORCA-job 62385 E -388.202241849497
  C          -0.70850931231173     -0.03737799374757     -0.00672204720524
  C           2.12861861263720      0.02327638999516      0.02349433296794
  C           0.04834156220395     -1.20812770855321     -0.14853751662368
  C          -0.00761158435225      1.16328567297570      0.12695429619493
  C          -2.18933504231347     -0.06859393773747     -0.00703908247932
  C           1.43122399915296     -1.17750732742081     -0.13028330407206
  C           1.38157766149477      1.18981858199027      0.14906843561401
  C           3.63226827026533      0.04530097265424      0.03601639824244
  C          -2.91163074564431      1.17460586252702     -0.45575354497602
  C          -2.87454581500600     -1.14582323872482      0.38601751270513
  H          -0.45723703972283     -2.15250631915824     -0.29961024389747
  H          -0.54706969283890      2.09457971269662      0.23129752893658
  H           1.98416360643837     -2.10245500929178     -0.24969222310705
  H           1.89174657567014      2.13893176280778      0.26493632592200
  H           4.03009171466798     -0.58932614860525      0.83177987100866
  H           4.04056166141711     -0.32695255069986     -0.90713970840097
  H           4.01238505421171      1.05534937133666      0.18984690738766
  H          -2.75521953969631      2.00028823526700      0.24350384418793
  H          -2.55199845835151      1.51021627400126     -1.43148942169349
  H          -3.98410243725950      0.99582213537788     -0.52110572617436
  H          -3.95659828263167     -1.15876411338825      0.36204286719929
  H          -2.38604376803104     -2.03619562430231      0.75822949826308
