45
Coordinates from ORCA-job 6255 E -1297.879401560125
  O          -0.19270636550450     -0.30922367898462      0.12102535752482
  O          -1.87956414429121      0.91006535402434      1.18277071561120
  O           3.15334692671532      1.19416307426469      0.15034751743681
  O           1.50687868670458     -2.59423652988268      0.19764597268418
  O          -1.32896301567691     -2.71039108504119      1.00544343023274
  O          -3.87488566774278     -2.38240108190887     -0.32525702642419
  O          -4.40889275277837      0.20874264464298     -1.36029321777843
  O           4.11370718397847     -2.14221283328956     -0.89102454881700
  O           5.23125199504592      0.46839086894867     -0.44963659327993
  O           1.76080678292535      3.57819189389477      0.16146135039227
  O          -2.48924619148405      3.53619895480914      0.37077054034419
  C           1.18413191661343     -0.16513787768043      0.42456956753716
  C           1.93039219579515     -1.30563449947361     -0.25808120328748
  C          -1.13806317653245     -0.27735595611684      1.17531932804090
  C           1.74426863136702      1.17008138741277     -0.07638872170463
  C          -2.05271526829497     -1.49344865459607      1.01796259209671
  C          -2.91859239136053     -1.33549393629792     -0.22464396936430
  C          -3.67804978241396     -0.02183259767724     -0.16722572670198
  C           3.44383969211963     -1.16107047307874     -0.13208340144665
  C          -2.70010454743094      1.13473781970745      0.01739523609009
  C           3.88016592699704      0.22778756755547     -0.60290278399254
  C           1.17840314503947      2.38337025943347      0.63856628609941
  C          -3.40144904153465      2.45942196845222      0.24438124905931
  H           1.67054331723175     -2.66437557903789      1.14783570036709
  H          -0.56067622008372     -2.61453765886699      0.41777776805097
  H          -3.40234731514839     -3.21730582846815     -0.21563706096432
  H          -4.90227103763256     -0.59814029116990     -1.55340471963773
  H           3.63841323422579     -2.97541177302050     -0.77690171489933
  H           5.50367265249531      0.21488764801751      0.44129352589001
  H           2.71892771295781      3.46042423412944      0.19006200040233
  H          -1.93899290209250      3.36721356806738      1.14399965436624
  H           1.33747517064847     -0.22104439421770      1.51043435571551
  H           1.66832249706435     -1.29567435619329     -1.31886009917661
  H          -0.62057760729271     -0.31171686645133      2.13700291697943
  H           1.54072615849338      1.26283841655677     -1.15176046716097
  H          -2.70607290105556     -1.53729709081288      1.89224680772582
  H          -2.27558940385810     -1.32726987095891     -1.11398548632675
  H          -4.35734838464458     -0.05614717840524      0.69623321914456
  H           3.71702472192289     -1.23922283669336      0.93543664230433
  H          -2.05725688079184      1.21120865605820     -0.86416040833626
  H           3.66495418426362      0.34711587937750     -1.67077834126293
  H           1.34042451839169      2.26478615105212      1.71971438392202
  H           0.10831133791282      2.44964308169709      0.45481927001090
  H          -4.04247788476876      2.37642499715905      1.13140445409536
  H          -4.03210270649525      2.67507950306284     -0.61619935156234
