12
Coordinates from ORCA-job 62695 E -157.186566808534
  C          -0.54074673680145     -0.38579295826754     -0.00003028269328
  C           0.54071140476879      0.38586029065200     -0.00003503785893
  C          -1.95371847494325      0.10787946753107      0.00008621263337
  C           1.95367836210797     -0.10782483442326      0.00008176466819
  H          -0.40892006354861     -1.46627897174140     -0.00005830234281
  H           0.40889294426867      1.46634855245867     -0.00006464695307
  H          -2.49875550946588     -0.25268631954336      0.87788553975856
  H          -1.99471431770187      1.19842060834585     -0.00025210698641
  H          -2.49913018104450     -0.25327054611655     -0.87723501479984
  H           2.49872101457675      0.25273827499839      0.87787944102240
  H           1.99466067763790     -1.19836608392222     -0.00024997843633
  H           2.49909488014548      0.25331352002835     -0.87724158801183
