26
Coordinates from ORCA-job 6293 E -839.139604878768
  O           2.54183920501378      2.17062976780446      0.00034336557500
  O          -0.08504875553882      2.53110801063600     -0.00032223462250
  O          -0.82888144429988     -2.80157496542505     -0.00042909753488
  O           4.55725508306942      0.50109008910237      0.00048292024056
  C           0.92926861985537      0.38376761154212      0.00004713356999
  C           0.71268574296772     -1.01364969894554     -0.00006540557537
  C          -1.59276805621727      0.72786757266697      0.00015330689151
  C          -1.80068449232749     -0.65465374308739      0.00006584803337
  C          -0.22269131508294      1.32253855226743     -0.00004529439239
  C          -0.65473618550188     -1.59399560063507     -0.00019940949168
  C           2.24888186667913      0.85727078719301      0.00021970120496
  C           1.77978172066627     -1.89948735958843     -0.00002928318021
  C          -2.68992515376664      1.58833418858755      0.00039099559732
  C          -3.09915199274411     -1.16399118560962      0.00023179755526
  C           3.31168469824145     -0.06491125581811      0.00028263083628
  C           3.08301326096561     -1.42647812242056      0.00015032901691
  C          -3.97692221348715      1.07665714543809      0.00058603758049
  C          -4.18282713814729     -0.30255214719790      0.00049842437376
  H           3.50576040793863      2.26150929451198      0.00049990463826
  H           5.23906929803858     -0.17928895449270      0.00046680734979
  H           1.56990183869646     -2.95905065734990     -0.00014281193050
  H          -2.50670797777766      2.65367801109694      0.00043355763478
  H          -3.23035613725812     -2.23713654311696      0.00013464594050
  H           3.92072247683909     -2.11496735306089      0.00018558558537
  H          -4.82461531563954      1.74991998542812      0.00080252529122
  H          -5.18973204118271     -0.69985442952692      0.00063801981219
