17
Coordinates from ORCA-job 63112 E -493.147592380808
  O          -1.71580000927200     -2.07128835971320     -0.00018192092032
  N          -0.70594263196385      1.78693907286066      0.00010821421040
  N          -2.36624857967844      0.11620407756573     -0.00004206111577
  C           0.34721734713798      0.88807553371617      0.00007316965077
  C           0.02589232164778     -0.47397696276759     -0.00002382543743
  C           1.67763107880610      1.31282196790579      0.00012737241141
  C           1.06215384694952     -1.40986389346099     -0.00006229860639
  C          -1.39635584730866     -0.90009049986847     -0.00007734692629
  C           2.68485927847313      0.36704469878342      0.00008197328548
  C           2.38088677972619     -0.99784336296364     -0.00001399759979
  C          -1.99032545055799      1.34417365461854      0.00004463961117
  H          -0.51941455925882      2.77644637800325      0.00016054195821
  H           1.91061551918663      2.37090404193940      0.00019948002138
  H           0.79312024334281     -2.45731322698692     -0.00014020783402
  H           3.71787759883787      0.68997323059404      0.00011726422578
  H           3.17947941579806     -1.72756213765533     -0.00005141689050
  H          -2.73964235186630      2.13233878742914      0.00007441995591
