9
Coordinates from ORCA-job 6343 E -477.964039840637
  S           1.55855771652471     -0.11715921676842      0.11845288365636
  C          -0.10345347738419      0.62958744927330     -0.05488225712798
  C          -1.24634401908348     -0.37021221552832      0.03222396595257
  H           1.39475657377644     -0.57916895044227      1.36980389515726
  H          -0.21158964473125      1.42324387098680      0.68447176299036
  H          -0.07756633382814      1.10538122535832     -1.03656311331067
  H          -1.27404707125003     -0.84827120305578      1.01328963226144
  H          -2.20520000799745      0.13186385033041     -0.12385721330702
  H          -1.13841873602661     -1.15275881015403     -0.71942455627232
