39
Coordinates from ORCA-job 6370843 E -585.879590663064
  C           0.57213192744366     -2.08630805116310      0.23175704498312
  C           1.26473004576603     -0.76591799860738      0.47468244633102
  C          -0.71637351749314     -2.02481971114593     -0.62785720632037
  C           0.66260345027954      0.09517818070246      1.57528550094844
  C          -1.88784122480045     -1.34389842766632      0.03103020879968
  C          -0.45105884812477      1.33476467255010     -1.17890450170973
  C          -1.84215144077619      0.71821313537444     -1.45741952283687
  C          -0.36341942616038      2.02209530208097      0.15838770497268
  C           2.37295964377818     -0.38981683035135     -0.18001644500114
  C           0.10901448161562      1.47041859246599      1.27794156432950
  C          -2.36258218344658     -0.15632346719751     -0.34691592444923
  C          -2.51824382268960     -2.09882809495548      1.16934706485120
  C          -0.91282117505200      3.42408206373738      0.18069538269807
  C           3.00423917982405     -1.16595455597856     -1.30485134625869
  C           3.08155823399885      0.90802946273579      0.10007846015107
  H           1.25198808709787     -2.79143077414223     -0.24313121925447
  H           0.32141970605871     -2.52669691823696      1.20172753266470
  H          -0.48053934793063     -1.55234080716520     -1.58201370990502
  H          -1.00263213002091     -3.05897216223052     -0.85141770377057
  H          -0.13546770954149     -0.47256903298256      2.06292552391170
  H           1.42059801755231      0.22459549723153      2.35705735988028
  H           0.29622563735400      0.55157224445569     -1.24455471242547
  H          -0.23254004391603      2.05720583540987     -1.97257397338858
  H          -2.56341594469472      1.51843843719474     -1.63562946289708
  H          -1.77874923136091      0.15531551131843     -2.39414164373470
  H           0.06364460320894      2.09183446944507      2.17018689791970
  H          -3.20061371807900      0.24505255576266      0.21499266775169
  H          -1.80076486086311     -2.29829377219639      1.97090745669954
  H          -3.35442648148583     -1.54700117361878      1.59862967996488
  H          -2.88631004296779     -3.07381115243411      0.83325873045701
  H          -0.87247362229253      3.86168894096795      1.17840002993263
  H          -0.35393520997786      4.07266910826605     -0.50197597669249
  H          -1.95466096613646      3.44335246263870     -0.15533963073575
  H           4.01886040924647     -1.48044596869015     -1.03861632962474
  H           2.44397136468771     -2.04803148821824     -1.60338278982596
  H           3.10340678482598     -0.52468870487276     -2.18718742102553
  H           2.80586641821982      1.35188164386700      1.05349732142644
  H           4.16517028018887      0.75890098317385      0.08733134469758
  H           2.85506767666376      1.64634099247486     -0.67691640351454
