16
Coordinates from ORCA-job 637497 E -308.849984804808
  O           1.26545136961303     -1.34202377661707      0.21183101109076
  O          -2.74815781857786      0.23589951426677      0.13776597009008
  C           1.03356597675033     -0.02126458049483     -0.29198112912316
  C          -0.31181522802649      0.52714096279097      0.18064686487953
  C          -1.49763945804885     -0.31649307150088     -0.26878092547339
  C           2.19052337088966      0.90633653596741      0.05208182986235
  H           1.40706546189981     -1.28063600774861      1.16420208592527
  H          -2.80271269453105      0.19495899518818      1.09856839454456
  H           0.99675957443660     -0.15747282669881     -1.37684112298039
  H          -0.30010929912934      0.59221897767457      1.27726028763373
  H          -0.44309394958130      1.54678049719672     -0.19260337712799
  H          -1.38595437987512     -1.34509383995132      0.08708246473076
  H          -1.53656923127042     -0.35011361610104     -1.35945693918834
  H           2.25149233887335      1.06086895607345      1.13408083822357
  H           3.13409538061060      0.47790401234059     -0.28754194588196
  H           2.06310158596707      1.88414926761389     -0.41670130720538
