26
Coordinates from ORCA-job 637518 E -390.572760382814
  C           0.47093348397473      0.24525076316864      0.18811299646646
  C          -0.76892457348912      0.70504136083651     -0.55142489718500
  C          -0.13398560338292      1.58175501635361      0.51055206283567
  C           0.03014033972868     -0.91591058530214      1.08685466080693
  C           1.82916123647510      0.20072784089713     -0.48569123657678
  C          -1.88970542489881     -0.15666073628183     -0.07556757729363
  C          -1.45565195567633     -1.02009785505736      0.84610396857193
  C           2.95765988238588      0.20383190482351      0.54874391613153
  C           1.95949705151771     -0.98037725174851     -1.45058231288269
  C          -3.28394464002222      0.01835369210138     -0.57709474686847
  H          -0.73367857972383      1.03116025639419     -1.58452655478977
  H          -0.67550099527618      1.71044755880291      1.44000269528606
  H           0.41072367072722      2.45598408055886      0.17472898507147
  H           0.54051551875041     -1.84698151596486      0.81879678108561
  H           0.26781595733278     -0.72794387085400      2.13881264636785
  H           1.91700108395736      1.11862622780080     -1.07819672714078
  H          -2.08881493492010     -1.71229101721147      1.38740111095023
  H           2.87482239375152      1.06411971987043      1.21602739855814
  H           2.92634158567142     -0.70017117932020      1.16224125411996
  H           3.93583003267206      0.24059478887634      0.06429539302591
  H           1.92545965113294     -1.93477771782000     -0.92054650553666
  H           1.15226488972609     -0.97762164614577     -2.18542495246859
  H           2.90964349954500     -0.93834391795447     -1.98751913360671
  H          -3.96928844702239     -0.69285249196917     -0.11501835136971
  H          -3.64762367261957      1.03078661997663     -0.37525636421806
  H          -3.32861945031744     -0.11999704483118     -1.66198450934089
