80
Coordinates from ORCA-job 638072 E -1172.989530888511
  C          -0.74325604154340     -1.09518060306705     -1.51107248207614
  C           4.38504641035829     -1.12228041211185      1.38597862802830
  C           2.68254684769826      0.19881249084836     -2.87845669793039
  C           3.84195971246224     -0.73553691643707     -2.46440836811777
  C          -0.72151469961011     -2.32616851586198     -0.57820923193816
  C           3.17719359512768     -1.11688231057812      2.35104872234553
  C           0.47816153753000     -0.96152193604921     -2.38346864316199
  C           4.02743403661752     -1.48356421187675     -0.03446582933293
  C           1.41162182306510     -0.04716522887411     -2.11417518362061
  C           4.19445883924393     -0.59580463508512     -1.01637616233242
  C          -2.41038597446618     -2.23456045003093      1.33176412482571
  C           1.56917679845359      0.86962441773036      2.38882694323466
  C          -3.84475806410137     -2.40428031466584      1.76445435328591
  C           0.44077278398469      1.58986961494738      1.69567432280510
  C          -2.04989642502123     -2.53055847553074      0.08211129488464
  C           2.05879204449696     -0.25306136886635      1.85906131126515
  C          -4.63764986427304     -1.07332511914422      1.76289616280180
  C           0.86519505544687      2.90374064856501      1.00563785275461
  C           0.56102521647512     -1.92179605685246     -3.53730971553797
  C           3.45599935382820     -2.86104215867320     -0.22395950294031
  C          -1.48596142206983     -1.67203457674009      2.37376703107626
  C           2.06201678643680      1.50386797803648      3.65876229368007
  C          -4.81842695778351     -0.52248224287104      0.38221172094326
  C          -0.29687111852488      3.55858240007966      0.32531799800671
  C          -4.22976132227693      0.54277483125391     -0.16350168911586
  C          -0.48811263380164      3.76347568450614     -0.97962502190666
  C          -3.26493706719734      1.44500556790049      0.54823720154184
  C          -4.48774966435127      0.92555278057020     -1.59450980234469
  C           0.49881177329391      3.41475861710739     -2.05734539822143
  C          -1.76995980998467      4.36756363749301     -1.48362015888532
  H          -1.63654855022595     -1.15794939774320     -2.14276646520627
  H          -0.86251429840875     -0.20167144043536     -0.89608872267062
  H           4.84795531046037     -0.13332273949857      1.39992976612541
  H           5.12575495537731     -1.83349231680995      1.77035072512087
  H           2.99511877447946      1.23513732805489     -2.72198441374176
  H           2.51577622053547      0.08929174273733     -3.95290889461430
  H           3.56671487617611     -1.76200301574151     -2.70650409191762
  H           4.71548165568644     -0.48853748911046     -3.07835758269642
  H          -0.46984882564639     -3.21604511075416     -1.16278361583095
  H           0.07851266652699     -2.19823188063781      0.15140584841883
  H           2.81034721635665     -2.14265084409416      2.46535566420697
  H           3.52236714757452     -0.80634149252490      3.33739536729630
  H           1.25761091722636      0.57721368975831     -1.24118796036647
  H           4.59902787214025      0.37637297534374     -0.74131813255395
  H          -4.34938656725000     -3.11058584391456      1.10078848864134
  H          -3.88257878233230     -2.82894503074176      2.77307991697945
  H          -0.00170695137787      0.93420475069839      0.94484658721250
  H          -0.35341218868989      1.81555593293195      2.41687167078531
  H          -2.82498212271513     -2.91422213097651     -0.57762530831909
  H           1.61504171459658     -0.58605199838467      0.92577692370139
  H          -5.62025926472854     -1.26709100853842      2.20548208743018
  H          -4.14491306729412     -0.35363303918987      2.41717824959761
  H           1.27936375748767      3.58551899576531      1.75566287318435
  H           1.67162952132025      2.68409038136604      0.30525997414218
  H           0.63759305229134     -2.95391010952579     -3.18258368169702
  H          -0.34543932999458     -1.86907852779502     -4.14813515764932
  H           1.41722191111250     -1.73288879673784     -4.18203825093326
  H           4.10288220693322     -3.61210039788743      0.23972258456334
  H           2.47823234765074     -2.94894878599526      0.25782948241945
  H           3.32537898678948     -3.12459376975245     -1.27061953062800
  H          -1.44352462462732     -2.33466596157201      3.24413943429262
  H          -0.47121584353950     -1.52055454777159      2.01618792508465
  H          -1.84913920813544     -0.70658210359984      2.73755594876359
  H           1.24919022918072      1.57685091722282      4.38855678045655
  H           2.87938474574907      0.95315572162392      4.11939049221726
  H           2.40992073252167      2.52460079029097      3.47729404965646
  H          -5.48378311896350     -1.10371529230893     -0.25330826329308
  H          -1.10061019973449      3.85522883577950      0.99598650707786
  H          -3.04497480320590      1.12616442378133      1.56402120546930
  H          -2.31962138550995      1.50256264233770      0.00401337967732
  H          -3.65356222109191      2.46765455241483      0.58894816206058
  H          -4.87609132127567      1.94686834847345     -1.66523146466523
  H          -3.55695167694066      0.90592324579003     -2.17129596092062
  H          -5.20103178451532      0.25348176312220     -2.07219064324043
  H           1.45027901705403      3.06106480803655     -1.66808823618292
  H           0.09679286552654      2.63491189384225     -2.71129010938772
  H           0.69481044550636      4.28699206249444     -2.68852044848147
  H          -2.44905257303594      4.61478621953805     -0.66775931299117
  H          -1.57694155477612      5.27819714117595     -2.05955054637360
  H          -2.28536843175855      3.67468877373983     -2.15737337423730
