31
Coordinates from ORCA-job 638278 E -879.616891175499
  O          -1.66979830987239      0.65917742078313      1.64809736908564
  O          -6.14900717095300      1.29017043989122      0.28049526985240
  O          -0.99671283070439     -1.79586186140395     -1.60908967073385
  O           6.51443835606114      0.93823579860385      0.99589800195916
  C          -2.34551655552133     -0.25617686943637     -0.45832420903414
  C           2.71716150929237     -0.33555491932837     -0.16237569067529
  C          -2.63979528185025      0.47374056474156      0.70654227287316
  C          -1.02451721043815     -0.85635058694292     -0.82381853691123
  C          -3.39557803270804     -0.46653067272015     -1.35867842195936
  C           1.40829297988985     -0.80310056443789     -0.58329983088614
  C           0.21544643527913     -0.26237294343901     -0.28966216965888
  C          -3.91700839902660      0.97652301213203      0.93111170588515
  C          -4.66581126882618      0.03354053000508     -1.15639182595557
  C          -4.92568616489606      0.76458945427632      0.00250077357467
  C           2.90992383045223      0.78903958029710      0.65690993704795
  C           3.85632292534661     -1.02997667134454     -0.58527681870101
  C           4.17249510040191      1.19886784555050      1.03239312245445
  C           5.13050131930718     -0.62909606840783     -0.21635926655213
  C           5.29276270111632      0.48943227775135      0.59541578180783
  H          -2.04244118283134      1.13986071342565      2.39594389810566
  H          -6.76391750592397      1.06698444365324     -0.42784358881798
  H           7.20476538209572      0.37104818091554      0.63346476445569
  H          -3.17193629076478     -1.04829459932248     -2.24214911211771
  H           1.39750441540182     -1.69226372757279     -1.20635373216217
  H           0.12819366589874      0.61434233341015      0.33142918639906
  H          -4.14288247102606      1.52894159764354      1.83564604352445
  H          -5.45016608005070     -0.13706911079637     -1.88446208494869
  H           2.05351666205551      1.34942825817629      1.00694177774730
  H           3.73591962145388     -1.90134956840886     -1.21707643693543
  H           4.31656538797571      2.06521954018068      1.66393551054058
  H           5.99776846336509     -1.18360582787571     -0.55750101926357
