18
Coordinates from ORCA-job 6404 E -272.935852278966
  O          -2.00973353074734     -0.10932590265230      0.03839504522251
  C           0.40809284362065     -0.03553736787096      0.00001705594563
  C          -0.86996906907796      0.44976284026480      0.68837308243913
  C           1.60075087857791      0.59010094674361      0.73247586853223
  C           0.40922056209907      0.41087674658934     -1.46717905271547
  C           0.49385202225474     -1.56448850174567      0.08222683705129
  H          -2.80342365522423      0.20488170151419      0.48138171215473
  H          -0.90618997402967      1.54634986951147      0.64822013885110
  H          -0.84624071887346      0.14971264358620      1.74424528792602
  H           1.62389508659819      0.29036782937743      1.78319990576626
  H           2.53911556630836      0.27096820347339      0.27445649870571
  H           1.56436587861056      1.68162596738829      0.69174759945188
  H           0.36542552601791      1.50036558576051     -1.54420452733345
  H           1.32008717415792      0.07524480520002     -1.96800932050126
  H          -0.44781284862063     -0.00032639871165     -1.99993072117792
  H           0.51148570943575     -1.89959242937474      1.12252406417735
  H          -0.36104552642748     -2.02930505473236     -0.40819638131283
  H           1.40549307531972     -1.92247748432158     -0.40140509318289
