18
Coordinates from ORCA-job 64048 E -568.426971802973
  O          -0.70822592451051     -2.62836237481672      0.00008169119629
  O          -3.20211346188207      1.17797368593577      0.00018910633074
  N          -0.93401157819746      1.38278012136044      0.00030303956702
  N          -1.91940207146365     -0.71199753313628      0.00039206351050
  C           0.47958285970448     -0.55955511526152      0.00017023715882
  C           0.33684884643130      0.83323544815004      0.00017215901890
  C          -0.71704510172387     -1.41519915089334      0.00031869972456
  C           1.75376325009950     -1.12615494482440     -0.00012170777816
  C           1.47140884367817      1.64707628414716     -0.00013112698005
  C          -2.10593677485794      0.66128441172211      0.00030381213989
  C           2.87703106776104     -0.32112806347120     -0.00043830377171
  C           2.72736880148544      1.06716310685967     -0.00045006494922
  H          -1.05280459033538      2.38333474929072      0.00019804587407
  H          -2.76581443045955     -1.26412891761777      0.00035765396957
  H           1.82765835559451     -2.20506425864140     -0.00014351417390
  H           1.36178710809089      2.72446938590543     -0.00018711626866
  H           3.86470126191690     -0.76114017768623     -0.00070683323620
  H           3.60295453866819      1.70351334297750     -0.00073784133248
