13
Coordinates from ORCA-job 6406 E -286.561569693709
  O          -1.00767444289002     -0.19709585956321      1.33113275968223
  N           2.18969028569997     -0.05176029907529      0.24787414479565
  C          -0.43385902649352     -0.06785298884870      0.03158955806649
  C          -0.87651343547307      1.23664597307957     -0.63823053133652
  C          -0.89013668328062     -1.29371359911011     -0.75568691600178
  C           1.04411818170334     -0.07354154716818      0.14802322161827
  H          -0.73013569118413      0.55018466838917      1.87508637699305
  H          -0.55682951528700      2.09970580983675     -0.05184775263893
  H          -0.44869195676789      1.32741573809114     -1.63702577966451
  H          -1.96404020240138      1.24076118876088     -0.71152760934232
  H          -0.57510156021108     -2.20394927955040     -0.24808333359229
  H          -1.97821091753301     -1.28225834610971     -0.81898317049860
  H          -0.47091003588160     -1.28253445873192     -1.76113196808073
