26
Coordinates from ORCA-job 642376 E -614.878368772978
  O          -0.52090351218538     -1.27462797913527      0.13168923909423
  O           1.02099444771672     -2.89022965507071     -0.23361157838176
  C           0.84043791204976      0.57840757628820      0.11272131374206
  C          -3.02320526807596      0.18670794685574      0.59117204264507
  C          -0.53140670927661      0.10992314421737      0.26040050478349
  C           1.63930277300102     -0.54055395296851     -0.10150921806912
  C          -3.95802366659370      0.63710046152271     -0.54197264569640
  C          -1.65960250223735      0.78283963343495      0.47966798901534
  C           1.40681511674179      1.84792085255902      0.15072714801313
  C           0.77291685094069     -1.72935298441776     -0.09086826533408
  C           3.01099939110258     -0.44452108389397     -0.28354465521111
  C          -5.36384060079636      0.06176591741856     -0.39941067353876
  C           2.77899394165610      1.95199372705444     -0.03071325315120
  C           3.57681346619117      0.82140766324359     -0.24575413614363
  H          -3.46729837516105      0.48475326463625      1.54837795347292
  H          -2.95258792104895     -0.90176935249582      0.59840259701493
  H          -4.00468303835407      1.73067673490543     -0.55939844701859
  H          -3.52453478924438      0.33181323601354     -1.49825572041734
  H          -1.57094306910990      1.86083818072814      0.55835695343696
  H           0.80402484457063      2.73096166947441      0.31614928247174
  H           3.60732067048812     -1.33195711286406     -0.44822123797510
  H          -5.82550555107513      0.37808852346651      0.53932381276121
  H          -6.01022620027772      0.38841097579719     -1.21600464635937
  H          -5.34278733751237     -1.03051437809029     -0.40658114499820
  H           3.24493931389913      2.92881183017390     -0.00562171036678
  H           4.64326881259124      0.94154116114643     -0.38306750378963
