39
Coordinates from ORCA-job 6429301 E -585.860015360771
  C           2.52859180820963      0.06225625247455      0.09643316144366
  C           1.05855069349227      0.47086045033258      0.49138392093378
  C           0.64039731130802     -1.02549945916585      0.14927022849625
  C           1.94297590758710     -1.15364244031446     -0.66117306508793
  C           0.47925842951862      1.64441746005255     -0.29645460645085
  C           3.32879557194413     -0.35473757133840      1.32901762642471
  C           3.35191333500496      1.02314710326736     -0.74830454734956
  C          -0.66952857906546     -1.48568409229136     -0.43757713866346
  C          -0.79937890325204      2.26204631350599      0.31037511514800
  C          -1.73419644228942     -1.98110084380257      0.53261103345744
  C          -1.95236133511846      1.31448846980025      0.14503272570288
  C          -2.83881002512830     -0.93446032835892      0.83804123853868
  C          -0.88732404543902     -1.53635103850719     -1.74989921353631
  C          -2.16505505845354      0.37709923355658      1.06891414752084
  C          -2.65806484149638      1.39804339456859     -1.17720785943331
  H           0.95819228935133      0.69565425076846      1.55630770077744
  H           0.77071306377788     -1.57808658464194      1.08178834613747
  H           1.79335433817716     -0.91393751113036     -1.71424348854069
  H           2.47668646049871     -2.10364458903659     -0.59394596759428
  H           1.23815410043049      2.43008516882813     -0.33006451140731
  H           0.29148781031471      1.35895869471564     -1.33532138926436
  H           3.56498324845273      0.51509194376521      1.94767907220616
  H           2.77937066598782     -1.06460745513190      1.95007027229875
  H           4.27145307543485     -0.82584514445961      1.03821133366588
  H           3.62123321746516      1.92465886477353     -0.19132025781005
  H           4.28196778405245      0.53745447679394     -1.05611286577114
  H           2.82498268057354      1.32933960965254     -1.65260184668798
  H          -0.61924984865783      2.47185981420621      1.36803390647648
  H          -0.99959143448634      3.21845604144074     -0.18172963493322
  H          -2.20098938692435     -2.88597567460562      0.13610140654191
  H          -1.25108529287010     -2.26171901303534      1.47205889924911
  H          -3.52562916658402     -0.88554600678567     -0.00628979878227
  H          -3.41596964781660     -1.26663371237836      1.70523030814364
  H          -1.82227466075470     -1.91039883735184     -2.15052693819050
  H          -0.15323458424178     -1.20738437617037     -2.47321430358836
  H          -1.58936656731686      0.44314855487242      1.98971478667830
  H          -3.44888943176604      0.66038544018774     -1.28876623973653
  H          -3.10172475096847      2.39182155134937     -1.29526682033524
  H          -1.95807978895183      1.26193258959398     -2.00580173667803
