39
Coordinates from ORCA-job 6431152 E -585.872115770461
  C          -0.96181000587565      0.87675339896015      0.28714511071082
  C          -0.37472958845047     -0.57529749834887      0.18113819403920
  C           1.79964788481729      0.23318666480080     -0.87472874403021
  C           0.59243975336824     -0.71421385457296     -1.00376161758835
  C           0.25162636973468      1.84492860614401      0.36321530776399
  C           1.28011970379219      1.67116798862726     -0.75593542304551
  C          -1.75390260972265      1.01127909579372      1.58777655912944
  C          -1.39786028703531     -1.69165226330827      0.20989497380355
  C          -1.79223405527385      1.25543807726910     -0.91508882486263
  C           2.77381509312992     -0.20209089282059      0.20928604926415
  C          -2.22671742592468     -1.95139623741703     -1.01784217406619
  C           3.19739736972669     -1.64686719664371      0.16620955843964
  C          -1.52915665377214     -2.45053163535789      1.29646174731017
  C          -3.01121836774706      1.78218300429901     -0.91417520073589
  C           3.28758707490231      0.61725717069899      1.12379998386196
  H           0.22504532802397     -0.69011624208562      1.08929416226442
  H           2.36296187336136      0.15548052314526     -1.81410949942251
  H           0.92166126249273     -1.75102539020425     -1.07641166654747
  H           0.08221399865023     -0.49696877840404     -1.94367420747047
  H          -0.12444088526513      2.87090907227755      0.36239936107830
  H           0.73456235381549      1.68464346205237      1.32898994987172
  H           2.10811023074716      2.36678896685416     -0.60680635172383
  H           0.82871492480219      1.94796515180467     -1.71211587342231
  H          -1.13669603804640      0.70177016960727      2.43295190844266
  H          -2.05408756528575      2.04713088289581      1.75587567051416
  H          -2.64758925543222      0.38808343684768      1.58421243430363
  H          -1.31389376507331      1.11252259204658     -1.87811044728160
  H          -2.88590861659655     -2.80607990271127     -0.86624831811661
  H          -2.83660374411615     -1.08458035468595     -1.27470102741034
  H          -1.59444503909044     -2.16140541135083     -1.88459761602980
  H           4.04479615556400     -1.82589083839698      0.82723987317544
  H           2.38618718805355     -2.31184870469851      0.47373380702036
  H           3.48204051318033     -1.94457192470878     -0.84744229968926
  H          -2.24103137435014     -3.26640922868226      1.33713671226960
  H          -0.93100459675377     -2.27886581798078      2.18336869111049
  H          -3.49979614231285      2.05102001033712     -1.84247132325852
  H          -3.57091371249927      1.96156021557736     -0.00565780788197
  H           4.01800578437649      0.26134092913432      1.84019745094941
  H           3.01537086608496      1.66029175320540      1.19706291726037
