39
Coordinates from ORCA-job 6432308 E -585.910816597441
  C           0.06110539526152     -0.09896316236856      0.63605841915936
  C          -1.09773321146251     -0.43283335748001     -0.33981341536474
  C           0.71210884540171      1.27039032205807      0.32920210825343
  C          -2.11541446240191      0.71214123446246     -0.35712084130272
  C          -1.72981746869929     -1.81906934379254     -0.07610708119965
  C           1.63750513133425      1.14883175302224     -0.89139659283071
  C          -0.31876690598165      2.35762007245732      0.17701721765830
  C          -1.45855876003032      2.04092690341554     -0.74841610277816
  C           1.11382208309080     -1.17231086186867      0.67499463731037
  C           2.77117535363146      0.16571124614321     -0.60623206141969
  C           2.32481919213583     -1.07274718080560      0.12661115120817
  C          -2.37233252571886     -1.95575609208406      1.30653317394529
  C          -2.72855415687698     -2.20610476611895     -1.17015580020926
  C          -0.24242037201920      3.50055356635072      0.85327704141666
  C           3.34066836877356     -2.17257408764794      0.22702657381463
  H          -0.37861176079672     -0.02101018671316      1.63656191148552
  H          -0.66033753125547     -0.49550504973275     -1.34325539926945
  H           1.34529587730036      1.52495804014874      1.18501517437947
  H          -2.92400518308647      0.49073014555293     -1.05578341306280
  H          -2.56922842258810      0.82110429935976      0.63242261211282
  H          -0.91121403286073     -2.54228251484188     -0.13093521201915
  H           1.06875626149688      0.80940742558801     -1.75968362030430
  H           2.04245307567315      2.13051548103725     -1.14539790444195
  H          -1.08810479676617      1.95780062645400     -1.77691831760111
  H          -2.18936335327250      2.85161685083798     -0.73832337391350
  H           0.86176858057337     -2.08680169729035      1.20234902455494
  H           3.26385330862043     -0.12390646437138     -1.54069152296888
  H           3.55025429090204      0.65681767043862     -0.00842043520595
  H          -1.66338889275844     -1.75859822713303      2.11195353041412
  H          -3.21306912924360     -1.26903898707841      1.42672183956944
  H          -2.75600179580420     -2.96850518425901      1.44739908672836
  H          -3.02964026997733     -3.25029182667660     -1.06178962648145
  H          -3.63601360738725     -1.60049619822310     -1.12502964350447
  H          -2.29323911830155     -2.08518044870788     -2.16508215562568
  H          -0.98981477032723      4.27723789292433      0.74117106505177
  H           0.57231676499736      3.69912216455170      1.54000724273501
  H           4.25919397960167     -1.81364219099257      0.70311149055924
  H           2.96476451135868     -3.01749556508297      0.80462905328734
  H           3.62552250746343     -2.53476230153346     -0.76602683414061
