16
Coordinates from ORCA-job 643460 E -383.845318658896
  O           3.25624242617461     -0.80541942041937     -0.04972602222481
  O           2.38324205774200      1.22523549630042      0.13461726851563
  C          -1.59752271453514     -0.39282818807099     -0.01991456952488
  C          -2.68987623341204      0.37891402274272      0.04927242129849
  C          -0.25788902202649      0.13470539690216      0.03060875337002
  C          -4.09502222494216     -0.11376234619866      0.00183395201716
  C           0.86243961765845     -0.59958118586634     -0.03501329614091
  C           2.19162186755953      0.04344260395895      0.02612022941159
  H           2.95566913106391     -1.71880322176660     -0.13378092336570
  H          -1.70962170078282     -1.46955613803393     -0.11897630444323
  H          -2.55431484038381      1.45319059868619      0.14815711081314
  H          -0.14157502381139      1.21014807314153      0.12947996072089
  H          -4.63836533391787      0.17377937619410      0.90727106412537
  H          -4.63559288010925      0.33387884139399     -0.83787811438424
  H          -4.14038464884526     -1.19871905223119     -0.09776484856719
  H           0.80388052256775     -1.67933585673298     -0.13415368162135
