29
Coordinates from ORCA-job 643820 E -467.011723325110
  O           1.11609099569865      2.11559230888154      0.50407478751388
  C           0.78149815380242     -1.33826772140005     -1.13327558359186
  C          -0.74665977556994     -1.15672962469303     -1.31760606240124
  C           1.21497464024848     -1.25952854096291      0.30805456047533
  C          -1.21825795055226      0.24974968126628     -1.09987155213464
  C          -1.87863475280116      0.74460166955894     -0.04772591118504
  C           0.93345114273185     -2.49131505300356      1.12417379969952
  C           1.78710324688194     -0.18893880668507      0.86611036080374
  C          -2.31017575267286      2.18656885992797     -0.00913069253153
  C          -2.25171551309571     -0.04906204321241      1.17176163087580
  C           2.09541840405303      1.11673369329443      0.19991209906101
  H           0.26137236138471      1.74029339915498      0.25108331120617
  H           1.05658582455926     -2.31970253371411     -1.53206156409862
  H           1.29713154795568     -0.59604501405933     -1.74273848625104
  H          -0.99355717945415     -1.44780581197758     -2.34304637153805
  H          -1.27558426183345     -1.85417348510448     -0.66782508726829
  H          -0.98843475410437      0.93808273615947     -1.91058973918644
  H           1.20720048320569     -2.35187635816524      2.16965173493827
  H          -0.12445517027469     -2.76643953225740      1.08448076976300
  H           1.49145880475988     -3.34825291686165      0.73351385494445
  H           2.01406872147860     -0.22764371858837      1.92806922947313
  H          -1.89994885170597      2.69847108739366      0.86701656303245
  H          -1.99605273342053      2.72914193449326     -0.90077379881467
  H          -3.39943770770628      2.25780049226350      0.07026890685595
  H          -1.76108275274502      0.36965060800753      2.05533362287035
  H          -3.32938880841650      0.00933675863436      1.35204916490985
  H          -1.97267759926855     -1.09739370749351      1.10330974744223
  H           2.19412244882127      1.00017925895904     -0.88385509166012
  H           3.04083578804000      1.51498638018373      0.57186579679640
