69
Coordinates from ORCA-job 6441416 E -1166.060914488655
  O          -8.07486307180925      0.12846429348774      0.65073817788330
  C           0.34552535663508     -0.56489788927974     -0.38690810470706
  C           1.74323330450420     -0.14251212010849      0.16452543440303
  C          -0.43003114701067      0.72988950586646     -0.24254291760936
  C          -2.56725072803291     -0.42540452697714      0.40948859684075
  C          -0.35867564524552     -1.66722981091683      0.41253826192280
  C          -1.85030515470232     -1.73683545040816      0.08823352723440
  C          -3.98728820885381     -0.30481815746907     -0.21579513520062
  C           1.91942158489061      1.29805479134411     -0.35601276322152
  C          -1.72871255810802      0.79740254317290      0.09782408338112
  C           0.50523310342944      1.90268945783942     -0.41734110318038
  C           2.96865849071089     -1.02134833403026     -0.15489012142678
  C           0.43722900544015     -0.94305778543597     -1.87950939967198
  C          -4.85019950162391     -1.49981165442054      0.21926630445818
  C          -4.61525274396016      0.98790956101113      0.28882059532064
  C          -2.41174770531561      2.05889089833890      0.27047953683430
  C          -3.90497121915869     -0.22305423114477     -1.75413159440252
  C          -3.75018496023989      2.13766133887550      0.41661003738601
  C           2.85068700240718     -2.46671389255498      0.34713247033658
  C          -6.32996322778000     -1.32220961476637     -0.10828498359948
  C           4.20308353021239     -0.39333939578251      0.43171013560752
  C          -5.93809610097973      1.08975732478185      0.55302170572847
  C          -6.88802462451928     -0.00829782989653      0.40223848317075
  C           5.25594731557159      0.02930470422221     -0.25548437996034
  C           6.48414368662512      0.66926372329302      0.32524927850322
  C           7.75640074162650     -0.14453036298280     -0.01481884045862
  C           6.56965516956845      2.12496268701727     -0.15734467275963
  C           7.64869348474395     -1.58170020559849      0.49868757912652
  C           9.02844256502259      0.50997402304488      0.52879404408562
  H           1.64199373999667     -0.10166640562326      1.25661183735134
  H          -2.72885435926134     -0.39957614281706      1.49673175472095
  H           0.09550186738307     -2.63803805374559      0.21794993786455
  H          -0.22806048146458     -1.46457092328513      1.48025095346617
  H          -2.30448422823799     -2.55072789842452      0.65490827305328
  H          -1.97688315211461     -1.99124999023251     -0.96511191990672
  H           2.59049884960486      1.87558651416649      0.27680446177272
  H           2.37828281778223      1.27488907970738     -1.34662106818684
  H           0.32835831486425      2.42602211662140     -1.36067729727385
  H           0.35311331873285      2.63964482671591      0.37396744949479
  H           3.09549290750962     -1.04394483567222     -1.24171316578744
  H           0.99230311385228     -1.87332541793870     -2.01229682235972
  H          -0.55520080205412     -1.07583149278819     -2.30776081176884
  H           0.93832764197192     -0.16748790727746     -2.45943104131507
  H          -4.47696943017843     -2.41345205036229     -0.24627325233537
  H          -4.73982335253471     -1.62744243011229      1.30098729006883
  H          -1.82331645072639      2.96741456481083      0.29894817105758
  H          -3.24954236850587      0.58891270420119     -2.06762284372639
  H          -3.52017453329798     -1.15334277066648     -2.17355955721141
  H          -4.88827964641036     -0.04220858834615     -2.18652858585186
  H          -4.22000820313045      3.09502941694853      0.60908948668650
  H           2.62252952475353     -2.49412262824826      1.41548194130066
  H           2.07156135927475     -3.01863870299219     -0.17621603336239
  H           3.79323875881732     -2.99405485241757      0.19330999997569
  H          -6.49023313608589     -1.33924430439618     -1.19132757891467
  H          -6.93435576667827     -2.13006520900485      0.30552019133998
  H           4.21107185948515     -0.29946494758968      1.51740445071580
  H          -6.35807341901056      2.03112747881694      0.88978354022000
  H           5.24612344746665     -0.06569280000033     -1.34132018961084
  H           6.38016762490401      0.67505935609659      1.41717793832916
  H           7.83409061496240     -0.17881879734345     -1.10932136556298
  H           7.37650047982534      2.66974111945147      0.33261622663962
  H           6.74145621419568      2.16583920289949     -1.23668726181493
  H           5.63588034926898      2.64920252829945      0.05087766027119
  H           7.55512121264256     -1.59384829755071      1.58872700322328
  H           6.77901956372572     -2.09424543485532      0.08820406012793
  H           8.53955073050568     -2.15537014076000      0.23518598970051
  H           8.96142073506108      0.64338096235581      1.61270033217088
  H           9.89781342798510     -0.11922475814139      0.32757812358701
  H           9.21876611107146      1.48531131897762      0.08150848582598
