20
Coordinates from ORCA-job 644160 E -572.613709354495
  O           0.81281895866905      1.61610854745478     -0.02311077177187
  O          -1.87958128937427      1.57038281994385      0.30823983618942
  O           0.97013199731046     -1.19884385757010     -1.04666733515618
  O          -3.33174796460234     -0.71964306378777      0.05988205667635
  O           3.40277102038237     -0.57045253586737     -0.16046136237885
  C           0.18211428239965      0.48332147477036      0.54997322780197
  C          -1.22974551818678      0.33670356660553     -0.00222337371622
  C           1.06823067802837     -0.73416907425489      0.27131925170053
  C          -2.00613087388122     -0.82859859081579      0.58164542901274
  C           2.50383903240013     -0.39675825756604      0.62049042455536
  H           0.15697073899196      2.32548933133544     -0.04378641750205
  H          -2.80491701071860      1.47350986980763      0.05057541161072
  H           1.85671339114863     -1.11879785904476     -1.43454049214236
  H          -3.90455038093827     -1.34910403732465      0.50800224664611
  H           0.11257360720796      0.60563388715850      1.64177178253303
  H          -1.16404071958917      0.20968226069319     -1.08709906245649
  H           0.76293107073444     -1.53163334282886      0.96786390867590
  H          -2.01446048667873     -0.76102186523472      1.67605570930766
  H          -1.54703002623330     -1.77460374071542      0.27867160927007
  H           2.67993549292967      0.00587646724108      1.63443392114414
