55
Coordinates from ORCA-job 6442145 E -894.788089475271
  O           9.62552934455417     -1.20497255460274     -0.55982051195266
  O           8.91382683711510     -0.40987998083803      1.42642631824768
  C          -4.74448881866280      0.42145852963642     -0.31821947044509
  C          -3.38899537205258      0.04020991976983      0.27149153914334
  C          -5.91722047938877     -0.31453753603260      0.32481731075658
  C          -2.21649339146666      0.77643357671062     -0.37169591374073
  C          -7.27278363671872      0.06700385397588     -0.26455095036346
  C          -0.86123706064791      0.39522253537052      0.21876989425172
  C          -8.44572461435192     -0.66879901942936      0.37843906542346
  C           0.31032276036670      1.13260727769084     -0.42471049036633
  C          -9.80137887002439     -0.28673156371796     -0.21014473327544
  C           1.66377855137888      0.74936354552994      0.16756274180291
  C         -10.97531308571402     -1.02279848270803      0.43196606508249
  C           2.83647493967435      1.49208534243278     -0.48920474520247
  C         -12.32554317222356     -0.63304300858477     -0.16390236458224
  C           4.15171846843320      1.14878337747666      0.12440802215321
  C           5.17899950758445      0.57390337505298     -0.51376609650505
  C           6.42671610736405      0.24421659711026      0.12872403802161
  C           7.47331168173117     -0.32939403904868     -0.48270886915456
  C           8.70845331835097     -0.63030826391686      0.25465043278574
  C          10.87385853105305     -1.54196836944968      0.05731151482632
  H          -4.89384833821355      1.50206102743327     -0.21200428203000
  H          -4.73911351334401      0.22140580114881     -1.39582391511457
  H          -3.39426999984693      0.24044055660209      1.34903330043901
  H          -3.23940694354747     -1.04032552757374      0.16540115862298
  H          -5.76793771202886     -1.39513167201864      0.21845883953891
  H          -5.92233244107658     -0.11472051113223      1.40246025873445
  H          -2.21078216767390      0.57587775503294     -1.44917379650570
  H          -2.36604386881104      1.85700268973110     -0.26583609944160
  H          -7.42190830059979      1.14763863770604     -0.15823937499938
  H          -7.26761814705305     -0.13284263214319     -1.34219999843400
  H          -0.86673914663371      0.59557004675991      1.29618911089813
  H          -0.71099366401515     -0.68503028256307      0.11238746496706
  H          -8.29679835117976     -1.74941829923603      0.27153454282820
  H          -8.45041341636574     -0.46936209922802      1.45618478936213
  H           0.31674379214784      0.93188739353822     -1.50201102468171
  H           0.16162408174283      2.21314456815138     -0.31814777005747
  H          -9.95116179270032      0.79390069471305     -0.10288255650393
  H          -9.79727503264602     -0.48556929216932     -1.28817710965154
  H           1.66326486634055      0.95507449611005      1.24330877114488
  H           1.82124452732462     -0.32852578548242      0.06219142015923
  H         -10.82488573725558     -2.10223200917991      0.32398792354877
  H         -10.97869815498477     -0.82343421912923      1.50886583076334
  H           2.85755161598426      1.27526227728087     -1.56083450301587
  H           2.66261614105654      2.57057308476593     -0.38821869919077
  H         -13.14551596895097     -1.17354180628220      0.31322018057464
  H         -12.51525808095309      0.43630063689467     -0.04063046470893
  H         -12.36043504911455     -0.85215639986521     -1.23416486602966
  H           4.26290229833394      1.37363914099737      1.18330490268702
  H           5.08515346697347      0.33797138375442     -1.57079468769177
  H           6.52542014693048      0.47755357046887      1.18495905038707
  H           7.44791965346396     -0.58998716364727     -1.53327971013090
  H          10.71995989860423     -2.25197321042884      0.86985920132031
  H          11.47977295975847     -1.98563895170615     -0.72832307441614
  H          11.35678083197894     -0.65000401173158      0.45632638972078
