40
Coordinates from ORCA-job 6450454 E -661.083338488398
  O           4.15025150418800     -0.71879331692328      0.40063973633222
  C          -2.76392391362320     -0.27755500367980      0.06002022365507
  C          -1.34010090292362     -0.44818482046105     -0.57225328725967
  C          -0.83004693180773      0.74390157042033      0.30145444180774
  C          -2.30987797862733      1.10600861165678      0.59132784130743
  C          -0.62530043406489     -1.80572330454937     -0.46169689665699
  C          -3.06537756606537     -1.24609183422223      1.19923077651073
  C          -3.91083470576632     -0.25989361816241     -0.93951087300570
  C           0.06490188243686      1.83306342941977     -0.25150712642559
  C           1.34381798764897      1.51124671460784     -1.00208913524169
  C           0.82323234538420     -1.57202187320661     -0.73222524427328
  C           2.56180646738478      1.05727219016075     -0.15564511497187
  C           1.74940394786715     -1.25863218151542      0.17577666433757
  C           2.92770003815253     -0.43759171868127     -0.27949411746883
  C          -0.25472845454508      3.11452298769222     -0.06422659419999
  C           1.62211091838001     -1.46573183038470      1.65664518038034
  H           4.11414395313549     -0.32583041536174      1.27978159560116
  H          -1.37344884684032     -0.14267582578675     -1.62189294045599
  H          -0.36403837880623      0.33621384522816      1.20213654640418
  H          -2.65725633740898      1.91424988625866     -0.05168587099847
  H          -2.57161913761359      1.34244865205192      1.62363824398128
  H          -0.77762571222239     -2.22001138464531      0.53327981137243
  H          -1.06593502820993     -2.50999131937739     -1.17282962398501
  H          -2.27238126549035     -1.25575914942497      1.94963145575623
  H          -3.98802969164768     -0.94660941656280      1.70266028791816
  H          -3.19972819831075     -2.26794900983986      0.83691492326998
  H          -4.84839086059991      0.03073934653429     -0.45724259030256
  H          -3.71596126884164      0.44751025539062     -1.74824698234438
  H          -4.05855511739159     -1.24817136452672     -1.38439317633889
  H           1.13926371390270      0.75796989898367     -1.76434356535878
  H           1.62902730761534      2.41550499600778     -1.54079724961165
  H           1.07671911025379     -1.41228782090455     -1.77708517798396
  H           3.44318120980244      1.62709950388157     -0.45707756941304
  H           2.38667461214023      1.29393794730342      0.89878994073424
  H           3.13403268043600     -0.65545272891777     -1.32948429188197
  H           0.38030366310386      3.91096435079249     -0.43308839841460
  H          -1.14750319185892      3.41762704885730      0.46601442247345
  H           1.65075190059693     -0.51929498864278      2.20685990138781
  H           0.70333764759565     -1.97927096846460      1.92940190851775
  H           2.46163003264092     -2.06679834100620      2.01556992484512
