14
Coordinates from ORCA-job 649 E -416.005040506016
  O           2.25734134233668     -1.07583206080192      0.05299803547693
  O          -2.27829760476265     -0.99834891814226     -0.03294543044764
  N          -1.18803938701268      1.00483036225785     -0.12804801767664
  N          -0.00428917045212     -0.98240209738090      0.11508510362425
  C           0.00044934677698      1.75444568911721      0.25187333349510
  C           1.23066775813265      1.07006006993942     -0.32666914826749
  C           1.24818547983193     -0.41433528358741     -0.02833012610211
  C          -1.25118001177527     -0.35389402406674     -0.01457399920925
  H          -2.08812261464787      1.45439883947389     -0.08200036148734
  H          -0.04239779400189     -1.98584133388511      0.22913908902274
  H          -0.09013951824252      2.76697402311154     -0.13966587110506
  H           0.08985360455500      1.82606041428556      1.34287457665946
  H           1.24148947186468      1.17673899926934     -1.41558013016812
  H           2.15187809739709      1.50174632040951      0.05984994618517
