21
Coordinates from ORCA-job 64961 E -533.421418462018
  N           0.00619154403815     -1.65134582749169     -0.00000464392149
  N           3.40320911972082     -0.20284725816130      0.00005457043634
  C          -0.73633003369287      0.49622048948745     -0.00000786750077
  C           0.70544235978869      0.50857931446511      0.00003173037486
  C          -1.12777592849940     -0.86376878457927     -0.00001080418515
  C           1.12336666885788     -0.83942596391404      0.00002073936400
  C          -1.71168259309769      1.49249468894753     -0.00004931030581
  C          -2.46825227561834     -1.23755654861112     -0.00002954900763
  C           1.68898698993444      1.49331048601565      0.00007413240923
  C           2.47775915056548     -1.15409974276839      0.00002605201146
  C          -3.04672494812233      1.12508959970313     -0.00009214429099
  C          -3.41663431984436     -0.22712723313990     -0.00007534139123
  C           3.01294947989345      1.08155240854639      0.00008367179143
  H           0.01572134246299     -2.65501894509019      0.00003640619726
  H          -1.42826698324995      2.53733088662749     -0.00006257277975
  H          -2.76268009620253     -2.27931124192348     -0.00002324416633
  H           1.44065735027497      2.54663587769384      0.00009645996393
  H           2.82226651181398     -2.18405333854567      0.00000937521174
  H          -3.81551280088444      1.88623319738180     -0.00013582684389
  H          -4.46694258566527     -0.48885242052731     -0.00010475536032
  H           3.81043104752634      1.81576635588399      0.00011792199308
