51
Coordinates from ORCA-job 64981 E -1265.869694487658
  O          -4.72431760077110      1.15660226290227      0.25459204125302
  O          -4.64797544659595      0.24204846764818     -1.78829515770362
  O           1.95775818938012      1.92154883413686     -2.63492031452667
  O           1.16129972384517     -2.79990511898714      2.72037958143242
  O           3.62877008121356      0.62072474892942     -0.73553644291764
  O           3.00901923294030     -2.29241289168605      0.68874772310603
  C          -2.44614299400119      0.93512652226476      0.94363580714696
  C          -2.68283589540188      0.13293584316209     -0.34211868499109
  C          -3.87778713011047      1.23407011246107      1.41634324986367
  C          -1.62459617412295      2.21708646264903      0.70954006881423
  C          -2.52100826699460     -1.39637917248512     -0.19758003214115
  C          -4.10304989188583      0.48986765723462     -0.75176593362957
  C          -0.19843520484609      1.91406429126947      0.33054087537338
  C          -1.07681410325777     -1.76592331006957      0.01023652207857
  C           0.26495112995287      2.09271031687592     -0.96923859666717
  C           0.67463695173834      1.37329309118503      1.27306231034723
  C          -0.59373623518476     -2.16771739103985      1.25114623396605
  C          -0.16293985666669     -1.61954506907723     -1.03040943176786
  C           1.54865977433012      1.70909083842328     -1.34006473876538
  C           1.95836132779624      0.99727443832066      0.91793171896735
  C           0.76220748369295     -2.37487899887403      1.47895506452305
  C           1.18863757023503     -1.82581645344842     -0.82027502614676
  C           2.39809518784494      1.13826511918426     -0.39013432402373
  C           1.67072752524152     -2.16860901625893      0.43713175725448
  C           2.04146892843624      0.75071654099247     -3.44830901024221
  C           1.92317881002885     -1.86761293101105      3.48510621817166
  C           4.63063128451528      1.59302698778593     -1.05665324956208
  H           3.49538267017129     -1.78463296105860      0.02530456677297
  H          -1.92678478950042      0.32870072655422      1.68558342051889
  H          -2.02019218707737      0.45994846891479     -1.14322704704431
  H          -3.99074908698086      2.23226959425463      1.83790516405927
  H          -4.23394475484418      0.50162642957697      2.14384850197485
  H          -2.10255431987031      2.82047576994639     -0.06664393039537
  H          -1.64260538331895      2.81139503693028      1.62752850167493
  H          -3.12900686340851     -1.75556509485811      0.63628376866151
  H          -2.91344321629888     -1.86119695640063     -1.10429000636528
  H          -0.37429017109569      2.52027187089369     -1.73196043275439
  H           0.34203726448478      1.22702145608140      2.29317574814254
  H          -1.26747240810414     -2.31427538654090      2.08669229414112
  H          -0.50873774032707     -1.32364893989059     -2.01321182085101
  H           2.62939464475297      0.55097149599198      1.63862568714594
  H           1.89469146411249     -1.69413188452277     -1.63023091021717
  H           2.78733882636834      0.05339524807448     -3.06193072692505
  H           1.06959953337965      0.25282898227857     -3.50541773789475
  H           2.33393176789617      1.08755534536273     -4.44065034415968
  H           2.11630907960451     -2.34606992515104      4.44327845429736
  H           2.86891131022552     -1.63088086627103      2.99654661918203
  H           1.35102809758514     -0.94847298965858      3.64943349363290
  H           4.83919596560297      2.22092614795074     -0.18636295549319
  H           5.52554176820837      1.03598968722331     -1.32686138619849
  H           4.31326312708193      2.21740656183013     -1.89269515111884
