23
Coordinates from ORCA-job 65067 E -1656.483605561629
  S          -0.00013168136903     -0.84231516573177      0.13363971391860
  S           3.88728353114325      1.14373576707078      0.21457329441410
  S          -3.88750856934735      1.14382245615353      0.21481105007930
  C           1.25406731098746      0.33872854137929     -0.08445019002129
  C          -1.25432058186896      0.33874899284409     -0.08440623764770
  C           2.64358094108002     -0.04226409554179     -0.03448624985820
  C          -2.64384448830336     -0.04220944991685     -0.03436196334003
  C           0.70491639259359      1.58211681758205     -0.28644438916562
  C          -0.70515548434888      1.58213217899348     -0.28641155472390
  C           3.19934498956118     -1.29388919291747     -0.15496193453921
  C          -3.19964251578679     -1.29383113813444     -0.15472957433645
  C           4.61197467598510     -1.29294139663517     -0.05670365931021
  C          -4.61226998846500     -1.29284043745011     -0.05643704603136
  C           5.12645345383780     -0.04405910686757      0.13739853096660
  C          -5.12671920189773     -0.04392476753246      0.13751347923426
  H           1.30402386493608      2.46549167701577     -0.45584244595993
  H          -1.30425883412821      2.46551245693063     -0.45577802382706
  H           2.60876304213794     -2.18225882826578     -0.32806107913622
  H          -2.60908581673482     -2.18221923689800     -0.32779548275900
  H           5.22105249494837     -2.18191209807221     -0.13376570633766
  H          -5.22137013042433     -2.18180017435624     -0.13345041186483
  H           6.15939938734565      0.24498140758097      0.23964595370161
  H          -6.15966079188199      0.24516079276929      0.23969792654421
