36
Coordinates from ORCA-job 65084 E -1106.506151281593
  O           0.66068458541933      0.69870963570753     -0.11677581934420
  O          -0.44112073039115     -2.81443982170025     -0.02920087868619
  O           4.56274363673803     -2.01519773303976      0.12249064833721
  O           4.84260878402919      2.79394295724493      0.13141007974002
  O          -3.69788475884027      1.65484584706243      2.07158697190732
  O          -4.79614373904182     -0.98383599097520     -1.75176398634903
  O          -5.61762505112847      0.58493355863455      0.38164755298244
  C           0.32364612858392     -1.66952618071834      0.30423997554356
  C          -0.11385506538951     -0.43705168924145     -0.50823527603190
  C           1.77679069695893     -1.98173760207675      0.00388283980452
  C           2.60417583739223     -0.72565543485986      0.00539280843083
  C          -1.56727287643998     -0.11075586932073     -0.29790652615880
  C           2.01387755897710      0.53783529644344     -0.04382657501259
  C           3.99599507679849     -0.77129236521133      0.08393429441238
  C           2.75968583157286      1.71171689289217      0.00205115348425
  C          -2.51618160195382     -0.66906782811168     -1.15202978999765
  C          -1.95860077729680      0.66382962548147      0.79047699237425
  C           4.77049513411462      0.38247365403297      0.12753628176359
  C           4.13818132674058      1.62401328272997      0.09106196371431
  C          -3.30880382758811      0.89834691167044      1.01167442876260
  C          -3.86781004206883     -0.43780958011119     -0.92276618979736
  C          -4.25840712787073      0.36989270070609      0.14007609907178
  H          -1.37198825495490     -2.62232275627188      0.13986106095786
  H           5.51863138566022     -1.93117890943889      0.20604204716102
  H           5.78499269372698      2.60154534726850      0.18511470100598
  H          -4.66006956843903      1.58848823616872      2.14771872542715
  H          -5.66901951502292     -0.82481705343939     -1.36581035073511
  H          -5.90220291766251      1.38807858005089     -0.07512163671924
  H           0.20430356670677     -1.41667585461149      1.36599049527246
  H           0.06791036452541     -0.64589484175001     -1.56870424072709
  H           2.16291731136936     -2.69361960122406      0.73446227306913
  H           1.82425987946669     -2.48322722594521     -0.96808001366331
  H           2.26713794428628      2.67189690225660     -0.03861215425974
  H          -2.22249918664196     -1.27608838732559     -1.99746079857117
  H          -1.22682353443142      1.09573240449430      1.45678804474722
  H           5.85184383209526      0.31472789252806      0.18807579808351
