34
Coordinates from ORCA-job 65080 E -918.145829649027
  O           0.55037166664754      0.51598751732081     -0.62094282191038
  O           3.78993755158094     -1.58796874909806      0.69902271140648
  O           4.04919214640131      1.26215014455851      0.25444014033942
  O          -0.83456459822810     -1.23916233145945     -0.18431663914157
  O           1.17165758778875     -2.44771278821025      1.37897237837142
  O           0.61078525135600      3.40377767457365     -1.08823225589937
  C           2.69592568916297     -0.68446298935436      0.74098264105583
  C           2.90900305155933      0.51508492247102     -0.17161101677976
  C           1.44296841671148     -1.47475679506943      0.38939908785817
  C           1.62581022847812      1.34980746726450     -0.22339884696378
  C           0.25377897571341     -0.52714640719108      0.29546416047621
  C           1.70357185185928      2.50464023860477     -1.20718500668157
  C          -2.09824125013791     -0.73951368972630      0.03240910104750
  C          -3.12387389446321     -1.67949709655147      0.06175020479288
  C          -2.37527834656779      0.61509181082046      0.19133748934487
  C          -4.43142278873506     -1.26367987115334      0.26046831465239
  C          -3.69161248473888      1.01517001214413      0.40023302363232
  C          -4.72220005605838      0.08588808425580      0.43710573958543
  H           4.60154116881760     -1.07333095957439      0.79025927501685
  H           3.87320211036898      1.61779499599284      1.13509322680067
  H           1.97229682566124     -2.97472114838254      1.49051653399891
  H           0.74978086177939      3.96445194767951     -0.31782358149964
  H           2.56754855111739     -0.30701004751507      1.76959937744564
  H           3.15213188421390      0.16792117705144     -1.17803045997479
  H           1.57388431391646     -1.93773134326134     -0.59603436907311
  H           1.42919607403260      1.75550663924306      0.78589892408736
  H           0.02327141275921     -0.09824786691929      1.28265060883307
  H           1.65689903256945      2.09919232652989     -2.21879473175101
  H           2.66313227711216      3.01513036299293     -1.08402551496547
  H          -2.87514597281227     -2.72460611525316     -0.06407905153514
  H          -1.58699775849906      1.34822465283712      0.10648905412991
  H          -5.22603352852611     -1.99855759318060      0.28517744188357
  H          -3.90818369766535      2.06940170416515      0.51856028311600
  H          -5.74304055317541      0.40840211339455      0.59406657830069
