21
Coordinates from ORCA-job 65090 E -723.607778279218
  O           2.92475428930162     -1.06634763351943      0.00003607415316
  O          -1.83991442000781     -0.97301126016546      0.00006918260861
  O           0.40440974567009     -2.48609762887669     -0.00000016274908
  O          -4.06145570609956     -0.97566324574669      0.00018827779676
  C           1.82322691885491      0.92486239784835      0.00011029965937
  C          -0.56150401925294      1.08934740631592      0.00009406079613
  C           1.70148195256256     -0.47664825802488      0.00006714962951
  C          -0.64029573261712     -0.31564122773487      0.00006056626241
  C           0.68463131515968      1.72008683345229      0.00012639195994
  C           0.48322198304235     -1.13794417580241      0.00004079695747
  C           3.24358905962515      1.17021098925603      0.00018722622366
  C          -1.81123416288517      1.79597147451531      0.00010473066929
  C           3.83701293622705     -0.03981391910251      0.00001896551784
  C          -2.98927813276313      1.14377753835713      0.00009844521231
  C          -3.06417798453036     -0.30750205088049      0.00012433315878
  H          -0.53125887873153     -2.73551278015731     -0.00000076633510
  H           0.74538340504318      2.80000959261074      0.00017279326361
  H           3.74245736868451      2.12443067748819      0.00027773986917
  H          -1.78754407421356      2.87956939613403      0.00012561123266
  H           4.86845733779628     -0.34590284394700     -0.00003356687431
  H          -3.93882120086619      1.65821371797974      0.00011385098781
