38
Coordinates from ORCA-job 65156 E -809.189323930169
  O          -2.25279665076908     -1.38135036002842      0.32374128010430
  O           4.69951755743989     -1.09180665976424     -0.16451974496923
  O          -4.07329071135474     -0.53878894500215      1.34027722353820
  C           0.94513636630055     -0.81978918476708      0.02696520082650
  C           0.85845229232672      0.66507753245971     -0.44112373177355
  C          -0.07211000610440     -1.63737776232139     -0.78635047381467
  C          -0.54370618966023      1.22602616770753     -0.24497663965770
  C          -1.60612213606042      0.44478918478559     -1.04044468684120
  C          -1.47959318720838     -1.07957934211679     -0.87243163775335
  C           2.35113758339451     -1.35401400592392     -0.30079979946410
  C           1.96690347225348      1.47917650296420      0.18183519012950
  C           3.47394962965906     -0.52256182475560      0.29676576393564
  C           0.66827565137273     -0.96098069093204      1.53243420076768
  C           3.34090161070456      0.94511223619178     -0.12355790850279
  C          -2.96980531972076      0.67499441635499     -0.45952248632611
  C          -3.21542807290325     -0.43664707251646      0.51003901327498
  C           1.77915060684607      2.54211267349753      0.95841754087810
  C          -3.85078633666611      1.63879660872099     -0.68794599551705
  H           5.43266985020357     -0.62124965874372      0.24700310141861
  H           1.06156293369881      0.64605058072456     -1.52239173209867
  H           0.29149060349210     -1.70608488856347     -1.81677308046347
  H          -0.12361496730033     -2.66165603080563     -0.40857087881891
  H          -0.80180122061134      1.21730866810622      0.81543966383779
  H          -0.58643217027316      2.27036135728448     -0.55950647534564
  H          -1.54464578219863      0.71371991641601     -2.09623855856783
  H          -1.99879389935055     -1.57517496603574     -1.69801079554887
  H           2.44754007820311     -2.38761369198910      0.04018461325809
  H           2.49394675003065     -1.36322282716516     -1.38639518284028
  H           3.43484466103153     -0.58187610730411      1.39062554953602
  H           1.30333560227782     -0.30022114160964      2.12126032994697
  H          -0.36663764922922     -0.74243329504298      1.78319526110625
  H           0.86281191727454     -1.98822829568316      1.84692140153542
  H           3.52546640548558      0.98953325403362     -1.20322698899790
  H           4.10602121922688      1.55176243546329      0.36724120204539
  H           2.62039115308426      3.07391061974628      1.38603817124617
  H           0.79583994657280      2.92387393777242      1.19641905979449
  H          -4.79141145335815      1.65151174781030     -0.15190209215766
  H          -3.66240813811046      2.42826091103131     -1.40467687772109
