11
Coordinates from ORCA-job 6562 E -231.203952852284
  O           1.84946144060697     -0.05234568145232      0.20194235753805
  C          -0.51897996452411      0.02913083654828     -0.00638564057422
  C          -0.63823230060521     -1.46262568912150     -0.00672357631558
  C           0.83920418933314      0.60405424081018      0.10876559960029
  C          -1.54276681829943      0.88065177214943     -0.10176711639995
  H          -0.21686021268759     -1.87880208752632      0.91066251462646
  H          -1.67732043716828     -1.77704935816223     -0.09628722485669
  H          -0.06320387098797     -1.89069582972686     -0.83039412555137
  H           0.87677162783895      1.71316827165117      0.10435792438474
  H          -1.37622052396859      1.95185799987560     -0.09438171495229
  H          -2.56797612953789      0.54355952495457     -0.18928999749944
