11
Coordinates from ORCA-job 6570 E -231.204953640936
  O          -0.52468979413080     -1.30328084543755     -0.25118400281530
  C          -1.74620392049863      0.73358856373860     -0.02275906034114
  C          -0.48980196380307     -0.10252089180347     -0.08482528601475
  C           0.79764870442979      0.63872034622164      0.07100430466025
  C           1.97147116332651      0.01642207265734      0.03414205119637
  H          -1.79848635969785      1.26036351632326      0.93435304883615
  H          -1.72587389438891      1.49831974904838     -0.80446465939709
  H          -2.62339740839218      0.10300125386050     -0.14563830616456
  H           0.74008647123150      1.71222453375772      0.21649616727112
  H           2.90557205682903      0.55116168329925      0.14671744119079
  H           2.01199194509461     -1.05641598166568     -0.11199369842184
