74
Coordinates from ORCA-job 65728 E -1131.593478908699
  O           7.63402695714454     -1.40852943735328     -0.73832855345316
  C          -0.75285599942601      0.60877424867147      0.76158603668943
  C          -0.07688057217123      0.71023729863029     -0.62895080565749
  C           2.02098816449422     -0.44744172587704      0.17956484266838
  C           3.56228399444933     -0.33583996817140      0.36069940426560
  C          -2.24812916458041      0.63449347563229      0.34120760471230
  C           1.42094682139026      0.72325748827897     -0.58541660117115
  C          -0.25139897224839     -0.69281165839100      1.39441479817373
  C           1.27641511432183     -0.71018500046294      1.50653741873973
  C          -0.83990633921354      1.81970862015648     -1.34557787337820
  C           4.16068515791031      0.12599391165590     -0.99205803262638
  C          -2.28635702994289      1.67143399654660     -0.81804910760826
  C           4.13844147101506     -1.72502180351863      0.70130410026389
  C          -3.31589067426548      0.91098122204052      1.41223592321823
  C          -0.40434102135354      1.81999852162741      1.63791883162303
  C           3.65382885969799      1.51604155975121     -1.36774782144282
  C           2.16362830258262      1.60810217378828     -1.24839454766761
  C           5.68836195027909      0.04567656107333     -1.04036337317049
  C           3.91170474006893      0.66733861201744      1.47456973652811
  C           5.66651953983718     -1.78143542091935      0.67427892270439
  C           6.20910979267467     -1.33971291439200     -0.67919219219680
  C          -4.72921965987887      0.99823199170254      0.80130221342379
  C          -3.29345390705753     -0.09192788289211      2.57008989713366
  C          -5.23388143188339     -0.26589501895649      0.10515761964612
  C          -6.65509437834540     -0.09350237951682     -0.43100744820715
  C          -7.24486739461777     -1.30196999870415     -1.17745473691086
  C          -7.37917981673333     -2.53362503775036     -0.27898784454768
  C          -6.46644849808109     -1.63592081868111     -2.45228315707888
  H           7.99198221914347     -0.79209547274277     -0.08862206775520
  H          -0.34533539942540     -0.23128076075451     -1.13269573810652
  H           1.84458592282973     -1.33342274303884     -0.44832752267822
  H          -2.45388417892699     -0.35522914034551     -0.08101976476594
  H          -0.67376871587668     -0.84597434569888      2.38770729803740
  H          -0.58995707536429     -1.53252261788545      0.77725797182581
  H           1.59193869767505     -1.67577731577109      1.90614961785695
  H           1.57290563061727      0.03458876494329      2.24450790475646
  H          -0.43280822434741      2.79782117645279     -1.08383329960074
  H          -0.77615163160270      1.72885741490875     -2.43034206627395
  H           3.77577916740798     -0.57095929849853     -1.74798198301592
  H          -2.97138594468291      1.35087583553878     -1.60350511853169
  H          -2.66236141890967      2.62979679874927     -0.45482579103047
  H           3.77858169967942     -2.04809002935710      1.68009595266573
  H           3.75077249818687     -2.44784767796346     -0.02538698873679
  H          -3.10806529768429      1.90146565114277      1.83206282921542
  H          -0.76716610829160      1.68053244006870      2.65773291956151
  H           0.67157759914231      1.98361366565559      1.68510081941448
  H          -0.85105134976933      2.73719102386501      1.25376622736700
  H           4.14492902643079      2.27858153937524     -0.74999873559405
  H           3.94908512868966      1.74429211592663     -2.39708797832313
  H           1.67616038323430      2.41370794698775     -1.78574203559098
  H           6.04063581973309      0.31484645431179     -2.03939259707537
  H           6.12596644942691      0.77707433665406     -0.35063396272759
  H           3.72035189585186      0.24272109978450      2.46004699062359
  H           4.96330246179102      0.94938712729576      1.44726476633193
  H           3.32386317831776      1.58095792913345      1.38483927944402
  H           6.08421556291801     -1.13285884246265      1.45283567136294
  H           6.01351640418836     -2.79426289634492      0.89000438813057
  H           5.87473950224457     -2.05212085202913     -1.43996878380742
  H          -5.42724906432442      1.25887393765851      1.60423789630140
  H          -4.76826381541252      1.82845762155263      0.09124514156796
  H          -4.16173213112365      0.05323780132200      3.21720175357666
  H          -3.31430420087651     -1.12324175245183      2.21237042573473
  H          -2.40399714436538      0.02322865752850      3.18757943535753
  H          -4.56264464689244     -0.52300371006983     -0.71753874712514
  H          -5.20315052904743     -1.10679264443348      0.80197644447224
  H          -7.31823062225528      0.15707216342282      0.40442842100658
  H          -6.67398827544902      0.77200790826553     -1.10277521264333
  H          -8.25644021303992     -1.00921672556023     -1.48185908032453
  H          -7.93247184110923     -2.30040353748839      0.63387712832131
  H          -7.90902221348834     -3.33649666879338     -0.79631449000545
  H          -6.40135065760458     -2.92296877957226      0.01317456285486
  H          -5.46176406491550     -1.99839799956416     -2.22343600891235
  H          -6.97265991374485     -2.41690629380795     -3.02386959505338
  H          -6.36680657504526     -0.75945892189579     -3.09709153278233
