25
Coordinates from ORCA-job 65724 E -464.600331019295
  O           1.24779213853613      2.43012911150528     -0.20581017543098
  C          -1.25532412972082     -0.06895940750524     -0.32922100445590
  C          -0.39842205062390     -1.06486520227776      0.54504621604792
  C          -0.57482157267864      1.04628507371738      0.54928544083597
  C          -0.46892263631455     -0.00933481050678      1.68513671931206
  C           1.02869608824038     -1.09582200461481      0.05452030668051
  C          -1.06085292105862     -0.03433379840378     -1.83868829527734
  C          -2.75026055602140     -0.19512717197221     -0.03955834437706
  C           0.83246156586870      1.31343481426383      0.03602012250278
  C           1.62866101978289      0.08631047088848     -0.15731713998996
  C           1.67674677802249     -2.41821828679404     -0.17632183581337
  H          -0.80200298228162     -2.06285691025001      0.71992877701136
  H          -1.10503046830187      1.98252248297731      0.71673883046364
  H          -1.37408105785902     -0.07496215024829      2.28245023098925
  H           0.39722478111224      0.05186407496935      2.34164645285460
  H          -0.01772369283632      0.04533164245515     -2.13514767017265
  H          -1.47555672406339     -0.93754418005185     -2.29398632029557
  H          -1.59339254645138      0.82103571316176     -2.26078023445734
  H          -2.98444281034286     -0.22843092223776      1.02300969515323
  H          -3.28797028869918      0.65106344744788     -0.47328508000578
  H          -3.14443250662508     -1.10623913956850     -0.49684545708892
  H           2.64798184996093      0.18372661824105     -0.50895023438463
  H           1.66171729869177     -3.02033794260474      0.73743144848310
  H           1.12047184274525     -2.98534662836906     -0.92985960907057
  H           2.70833458091787     -2.31339789422263     -0.51079083951435
