27
Coordinates from ORCA-job 65736 E -765.117164906454
  O          -0.06504915680257      1.48589598604695     -0.63301680485861
  O          -0.51490279182967     -2.26550040189547     -1.35187158941340
  O           0.86210073385950     -3.26936090269514      0.06735651394481
  C           0.09994763374026     -1.07779846705447      0.71409848033093
  C           1.30471125440643     -0.20397424449925      0.44159420041912
  C          -1.18159013749783     -0.30312695913304      0.55538165544447
  C           1.15982525981529      1.00415197895803     -0.23092439246240
  C          -1.19802859614241      0.90982377169327     -0.13094608439799
  C           2.58705920993046     -0.60056618141365      0.81789755091980
  C          -2.39104091082593     -0.79648713254735      1.04996565437227
  C           0.18407736854037     -2.31923010781831     -0.20053694339337
  C           2.25830194983778      1.79990199515954     -0.53444873510060
  C          -2.38810451368653      1.60271969274888     -0.34045754596902
  C           3.69188366290729      0.18213322170216      0.52382081723642
  C          -3.58070782559713     -0.11581655988454      0.85348770481759
  C           3.52459717082331      1.38422133100474     -0.15893315936337
  C          -3.57524924278668      1.08640734701426      0.14839144079228
  H          -1.06694636112933     -1.46820193035562     -1.36674823177033
  H           0.17093108523897     -1.48002312019203      1.72605514358425
  H           2.70778053167840     -1.54848900479035      1.32591278651715
  H          -2.38707880900668     -1.73725592553376      1.58789813406955
  H           2.09791608460345      2.73303914223727     -1.05726534235609
  H          -2.35550643494880      2.54105023618166     -0.87732640551981
  H           4.67958532363846     -0.14451756619572      0.81987558333735
  H          -4.50655927662546     -0.51716550634130      1.24247672258097
  H           4.38173331267362      2.00117818816378     -0.39486849463303
  H          -4.49918852481456      1.62584011943949     -0.01374965912896
