14
Coordinates from ORCA-job 6590 E -307.677872317200
  O          -1.67468242039301     -0.78443621814315      0.42361667298829
  O          -1.09166902558415      1.18835451327135     -0.39357548158066
  C           0.70263194762415     -0.22411335341597      0.39783106346373
  C           1.20191597703626     -1.16776966647291     -0.70966559717695
  C           1.58054576449901      1.01682392327984      0.51759630240206
  C          -0.74449352342502      0.15886250661299      0.10893026276606
  H          -1.25410837900783     -1.54677226585966      0.84122930120328
  H           0.72306403009833     -0.76838872174211      1.34970218985747
  H           2.22936733982288     -1.47228174184885     -0.50598631186544
  H           0.59230881216433     -2.06962965252584     -0.79060238308817
  H           1.18149814534257     -0.65960651326784     -1.67520842865527
  H           1.23505829153149      1.67097679949534      1.31837790007488
  H           2.61206199737337      0.72829138914992      0.72640051852605
  H           1.55809504291763      1.58854600146688     -0.40998200891534
