19
Coordinates from ORCA-job 660 E -498.178425737255
  O          -1.04019524276918     -1.08363243465694      0.17293662170724
  O          -3.23060848002676     -0.81795991593126      0.07304118980993
  C          -0.71745016393333      1.72323491155554      0.26524074697444
  C           0.46997241814011      0.81438243087129      0.13819369061987
  C          -1.89848786808484      1.10837360926802     -0.48522013023305
  C           0.23886964612371     -0.55684318619154      0.07408916011447
  C          -2.15261820432592     -0.31728060583602     -0.05826436228304
  C           1.78633893206835      1.25931489873433      0.07055757104082
  C           1.27649386567978     -1.46859067838187     -0.04747371817727
  C           2.84049387586049      0.36261558336942     -0.04740303627908
  C           2.58253505476737     -1.00272666598533     -0.10567837262958
  H          -0.98087672794381      1.85300319927161      1.32077496358569
  H          -0.48948961287512      2.71467680765348     -0.12750455305453
  H          -2.82453000049005      1.66130131657126     -0.34456312182968
  H          -1.67982796100311      1.08828165579465     -1.55827499013757
  H           1.98235922817770      2.32426280156852      0.11090377782637
  H           1.04658875107826     -2.52446948830970     -0.09092962706346
  H           3.85784015370225      0.72728875935706     -0.09702290255749
  H           3.39792033585409     -1.70772999872252     -0.20042090743409
