32
Coordinates from ORCA-job 6613 E -784.034704429087
  O          -2.83098502441141     -1.60720891863086      0.67105583234577
  O          -1.02320275137247      2.88115321915016     -0.24226802893094
  O          -0.65624123868135     -2.27207685270358     -0.71057710298815
  O           3.63701207466362      1.55577194836590     -0.64446517764956
  O           2.79695009152801      0.77413554828541      1.24525541386557
  N           0.69166914951537     -1.17324658279688      0.74441526387718
  C          -2.01682640931043      0.63405338843280      0.09023483182048
  C          -1.72473684285869     -0.73719997840152      0.77844270076468
  C          -0.79692282474260      1.56202221923008      0.23461811046030
  C          -3.21932897929735      1.24996636624298      0.81866320494741
  C          -2.34962632978704      0.44275084337441     -1.39200620053057
  C          -0.50754901238119     -1.46314525949208      0.19764007478040
  C           1.93898496631053     -1.68469803496658      0.21380007992485
  C           2.64736363994996     -0.66686983993506     -0.67701404761178
  C           3.01843544920321      0.59595994807700      0.07880850000332
  H          -2.61471753902687     -2.21373975660730     -0.05604561808362
  H          -1.64482208752852      3.32148504614675      0.34634342998491
  H           3.73250540886515      1.28562341996424     -1.56735746319633
  H           0.75818439130480     -0.46729241573832      1.45976276647570
  H          -1.55472196240984     -0.54994629473855      1.84437472460411
  H           0.03309684652875      1.18768211644138     -0.36336143022384
  H          -0.46507910539926      1.58925276520537      1.28180690766356
  H          -2.97328914263774      1.49284042469176      1.85695521451701
  H          -3.55314353892656      2.16067431747015      0.31826424252755
  H          -4.05304730470180      0.54985215415091      0.82560216865345
  H          -3.25168498134127     -0.15713798482843     -1.51049074142336
  H          -2.51594210110405      1.41389510681172     -1.85797289943752
  H          -1.54009356767526     -0.05834071983054     -1.92469704088127
  H           2.58730808908916     -1.96009311667648      1.04569169795089
  H           1.70750298560912     -2.57879292755220     -0.36075367394859
  H           3.55993692515339     -1.10525386374410     -1.09427896967259
  H           2.00707272587264     -0.40170028539853     -1.52414377058899
