13
Coordinates from ORCA-job 66282 E -555.340012888361
  S           1.18583764816325      0.72171762340160      0.08741691135472
  C          -0.09055562975199     -0.58156566178365     -0.09154458860837
  C          -1.40976576588284      0.04532302813024     -0.39791336541803
  C           2.67237301992208     -0.31589105167976      0.05399427291103
  C          -2.45031580782483      0.03775011035126      0.42540112598419
  H           0.22270764636089     -1.23290413679238     -0.91173466963255
  H          -0.14058951996998     -1.17186297528739      0.82488008675594
  H          -1.48358057895008      0.54779922615409     -1.35766075309099
  H           2.67732683772204     -1.02415803470221      0.88314896261214
  H           2.75520145178271     -0.85400332258182     -0.89104531100138
  H           3.52770283158335      0.35085453178057      0.15653666795242
  H          -3.38711989940074      0.50992056419857      0.15888511751665
  H          -2.40093623375385     -0.44280390118912      1.39614654266423
