20
Coordinates from ORCA-job 66308 E -572.614200024853
  O           0.26992977170697     -1.65111154882174     -0.10348771691351
  O          -1.60708495918185      1.41010181641262      0.74597111091017
  O           1.33595912919140      0.60505070871413     -1.25752215232532
  O          -3.71416849464283     -0.26377198694229     -0.16616136580799
  O           3.46383559754509      0.00956473482800      0.21715535346030
  C           0.01946368027231     -0.39023778652395      0.48424979718531
  C          -1.34001943907052      0.18116538701307      0.05854251185505
  C           1.15758155591270      0.58363993503523      0.14005786934376
  C          -2.48210989796174     -0.79732198447501      0.28227713906375
  C           2.44039420250375      0.18701688292823      0.82767433720960
  H           0.57242073132078     -1.47692917520368     -1.00687358442221
  H          -1.69968646083882      1.21880611247948      1.68876171604890
  H           2.28783436172867      0.48704657504089     -1.41428361810568
  H          -3.74964673298352      0.65845851571320      0.11838941628200
  H           0.00329101852163     -0.54953908874329      1.56948661052806
  H          -1.30264743861509      0.45291933424719     -0.99836389307507
  H           0.87701344047899      1.57865296837156      0.51565250828121
  H          -2.52934850410619     -1.05340808620458      1.35411089460622
  H          -2.30449281676336     -1.71882411007802     -0.26856271918328
  H           2.39385625498161      0.07990379620896      1.92770478505873
