76
Coordinates from ORCA-job 6665 E -1132.814787656270
  O          -7.54444278105494      1.61527480750095     -0.02589961000251
  C           0.77388510481642     -1.06220485323700      0.50699136241289
  C           0.07873964205012     -0.64250372020067     -0.80961056939216
  C          -1.43751060216714     -0.79173018396128     -0.79956324616513
  C          -2.01717533495228      0.06749420115486      0.34834427877959
  C          -3.57186387281844      0.01310577151281      0.41006358924558
  C           2.25958442478678     -0.82249296720854      0.11252051935147
  C           0.20832552554779     -0.16612940090041      1.61392197293031
  C          -4.10781509691561      0.46242558491758     -0.97832863855462
  C          -1.32329266395259     -0.24055554986186      1.68390156681168
  C           0.88631581165113     -1.34215677002737     -1.90282397258029
  C          -2.05346776696712     -0.40416015470142     -2.14554656591304
  C           2.33193000975032     -1.34081271499901     -1.35207395692964
  C          -3.57872420705708     -0.41009247407956     -2.11329663612495
  C          -4.09472343382561      1.02366544969281      1.45327164722388
  C           0.54455223984326     -2.54302970653454      0.84576706832549
  C           3.37462367021087     -1.40410629392212      0.99693800732208
  C          -5.62997591310632      0.60492715383413     -1.01284712672160
  C          -4.05826536996958     -1.39730887865686      0.78368220362414
  C          -5.61539853874892      1.19814267440834      1.42440729091198
  C          -6.11699232380669      1.58639816274256      0.03867256100097
  C           4.77127549190461     -1.15994984800875      0.39009562162057
  C           3.32570459869594     -0.90715909052906      2.44524767752359
  C           5.17453396091516      0.30374152239217      0.21085085925064
  C           6.58604933054641      0.44058579641918     -0.35989805280623
  C           7.07536403365001      1.87688889887879     -0.61075559080477
  C           7.16145974371750      2.69726673528859      0.67842717248397
  C           6.23722922056070      2.60206583339273     -1.66644334957758
  H          -7.86930941662685      2.21635818199405      0.65354106024140
  H           0.27927426027622      0.43366142259634     -0.91234831495379
  H          -1.67997169359855     -1.84291746735091     -0.61391632202028
  H          -1.76748607752565      1.10882228957403      0.09798257443632
  H           2.38819591264870      0.26529938388729      0.09547924897796
  H           0.61711059855481     -0.42728857558460      2.59036711310982
  H           0.51161603387219      0.86768558896542      1.41442528713005
  H          -3.69356610398770      1.46787408402584     -1.13928015626419
  H          -1.66574692082803      0.46018279618893      2.44685563262647
  H          -1.61685614201403     -1.23278173354997      2.03288283817340
  H           0.52532730178611     -2.36240379542720     -2.05449385585603
  H           0.80869632497263     -0.83464704113532     -2.86426358378055
  H          -1.70657029176888      0.60172121701528     -2.41298370724530
  H          -1.68939808636040     -1.07510040659111     -2.92696510013899
  H           2.99191570525514     -0.71615946453484     -1.95471571403901
  H           2.75583352196217     -2.34677448860956     -1.37501615408820
  H          -3.94999060693457     -1.43354837376681     -2.00240992399466
  H          -3.97360898403970     -0.04439019218518     -3.06547473468114
  H          -3.79259159639993      0.71988724855473      2.45665391359149
  H          -3.61817527813703      1.99260053859199      1.26487338382725
  H           1.02042809040751     -2.79419841903564      1.79501676473157
  H          -0.51267596191687     -2.78428403275851      0.94110498052867
  H           0.96136991751425     -3.20466095072615      0.08611864666509
  H           3.24333430433064     -2.49157446537103      1.01746699291941
  H          -5.94627149565720      0.95153578610080     -1.99977642022655
  H          -6.11993187722886     -0.35859917587164     -0.84976152399574
  H          -3.77076474164402     -1.64365586955978      1.80657822829946
  H          -5.14209221444695     -1.48065597703954      0.72674777117178
  H          -3.64241713668187     -2.16366652106597      0.13189847610506
  H          -6.11566062596207      0.27361276574446      1.72356686776928
  H          -5.90965990742091      1.96295440367005      2.15135615501656
  H          -5.72123952212652      2.58259444794160     -0.21095310430050
  H           5.50860901175193     -1.65031785037624      1.03496502785302
  H           4.84017161062680     -1.66326344933823     -0.57781863551544
  H           4.22259958985241     -1.21824699317413      2.98621146067645
  H           3.26711601168307      0.18184168276156      2.49693596957844
  H           2.46651236029960     -1.30650037582360      2.98173388549108
  H           4.46323081402391      0.80031362966186     -0.45313065900744
  H           5.11378388228636      0.82237589910927      1.17055082518391
  H           7.28970545214770     -0.05317195801679      0.31949722848888
  H           6.63775962443265     -0.11302865097461     -1.30414012360296
  H           8.09292033566973      1.78819554359524     -1.00869815337628
  H           7.75783268907615      2.18379922700467      1.43641824501366
  H           7.62254128304498      3.66945730974565      0.49079658310203
  H           6.17113357869997      2.88133274943814      1.10088498413521
  H           5.21995754143223      2.78418176003503     -1.31274723543488
  H           6.67572206935832      3.57175033111811     -1.91217559186382
  H           6.17141895203562      2.02029295523996     -2.58898521370430
