24
Coordinates from ORCA-job 66743 E -538.691842529409
  O          -2.16244514765156     -0.37732365179432     -0.01131112735624
  O          -1.72546123755026      1.82833194536009     -0.04583403967947
  C           0.09825572138327      0.28867797969474     -0.01394211250248
  C           2.83080537797750     -0.35600779378962      0.00355957636163
  C           1.06219422738567      1.29632500597531     -0.02853730094990
  C           0.50801287901640     -1.04442840892549      0.00661224757511
  C           2.40900611393053      0.97470815079657     -0.02086004242438
  C           1.85847776077609     -1.35692916948492      0.01417369356916
  C          -1.33287444059751      0.68518275852988     -0.02589772416499
  C           4.29331328801423     -0.70074610547961      0.04474912801435
  C          -3.57395991838856     -0.08185367968630     -0.02066460587645
  C          -4.31590002582430     -1.39802120607841     -0.00045162058562
  H           0.73535020785783      2.32691790297978     -0.04923254608961
  H          -0.23314199635547     -1.83038989603741      0.01312653563707
  H           3.14799833097280      1.76693990694004     -0.03641490952674
  H           2.16533577668732     -2.39603372440864      0.02610547733775
  H           4.64604614319593     -0.76438795416769      1.07838332750471
  H           4.48841103592568     -1.66464483720620     -0.42672542921263
  H           4.89464462183885      0.05694005467342     -0.45901094631565
  H          -3.80846609368095      0.53420518070100      0.84890744836292
  H          -3.80294408012130      0.50443261456161     -0.91201238050566
  H          -4.07108867742012     -1.97037281478961      0.89548429515802
  H          -5.39188289215849     -1.21415043521888     -0.00680896577248
  H          -4.06587897521356     -2.00069582314534     -0.87481797855841
