80
Coordinates from ORCA-job 6675 E -1997.190537051601
  S          -6.11117679232605      1.27197771169070      1.66601376671617
  O           1.10004635021271     -1.09275332237960     -2.07704842391431
  O           2.27837594514766      2.44301707614391      0.61642296386399
  O           5.94147401698485      2.66361888652923     -2.76810773283262
  O          -6.01649002838185     -1.68526122452922     -1.51818887252640
  O          -7.01663649568061      0.99812019548383      2.96940268965150
  O          -6.05154927628017      2.69015997869053      1.48649605166460
  O          -4.90516693379018      0.50115240578792      1.81801578406173
  N          -5.29512517953614      0.44244391307754     -1.29618346258374
  C           0.60676795038125     -1.47090400135407      0.32332484487333
  C           1.00321670081071     -0.04299755588602      0.75962888858323
  C           2.47260987890098      0.11181886562717      1.13088942446688
  C           3.36296627940649     -0.31782736063048     -0.05855738133732
  C           4.87960442827544     -0.20951563945730      0.28150648133128
  C          -0.91639564071474     -1.26827892653404      0.08874398701618
  C           1.45710909850257     -1.83794294466409     -0.90964970104967
  C           2.95390205609507     -1.69660546662795     -0.59995690873784
  C           5.19458916837448      1.25550293985437      0.69699393038312
  C          -0.06134184223590      0.34716258621612      1.78389889307798
  C           2.79397983923239      1.53240771125215      1.59926979034088
  C          -1.34225610179344     -0.35386387382487      1.27186221876806
  C           4.29051748088278      1.72566826509300      1.84422073147139
  C           5.77603011001381     -0.57490505352166     -0.92168303815688
  C           0.84067371932427     -2.51095464460736      1.42984447045342
  C          -1.81842223161377     -2.50386321067523     -0.05925437189953
  C           5.16259257953588      2.23022864648818     -0.49281937671893
  C           5.27027760665483     -1.16406498874776      1.42236672258759
  C           5.69344360331576      0.39388160120606     -2.09664634054854
  C           6.06127053110677      1.79343048054610     -1.64137005182562
  C          -3.29901402908217     -2.10241087737008     -0.19627164135851
  C          -1.40420515485189     -3.43211887675670     -1.20561240668426
  C          -3.63811251108665     -1.33311701017670     -1.48303596811989
  C          -5.08434547628444     -0.89903529802116     -1.44878408932180
  C          -6.61833934584443      0.95374396461377     -1.01443039954488
  C          -7.13623001895029      0.57902377461560      0.37832466532935
  H           1.33080123094308     -0.16747673618515     -1.93990637611238
  H           2.50769532624740      3.33937470026121      0.88204501950964
  H           6.13150396589388      3.56379728619387     -2.48191538555770
  H          -6.61144893308945      0.27660085312363      3.47396398823545
  H          -4.50451757038808      1.02522375474195     -1.07852070128481
  H           0.83230588616095      0.60255956798148     -0.10816179020067
  H           2.68059739888599     -0.53698771049244      1.98573438686780
  H           3.17075640101921      0.40849418620234     -0.85346478319370
  H          -0.99092726306398     -0.69442669576900     -0.83723388296132
  H           1.27052449352481     -2.87209795476765     -1.19528228522692
  H           3.48998130413554     -1.90804571956248     -1.52525342513812
  H           3.23605844438832     -2.47666619284135      0.10871077076729
  H           6.22340687164253      1.25421360963106      1.07771702709712
  H           0.20984553446738     -0.01368967350453      2.77943614623061
  H          -0.17791057208049      1.42798033934114      1.85614800934094
  H           2.26473302764131      1.70704040191488      2.54415258740145
  H          -2.09998191675203      0.36672323889180      0.96610810106940
  H          -1.80126607873545     -0.94867392759132      2.06402323360463
  H           4.54719095880892      1.18365069361812      2.75812727115003
  H           4.48705719014111      2.78209323538833      2.06052328181931
  H           6.81134613777106     -0.59600797413405     -0.56333447454572
  H           5.55855496780561     -1.59070973773358     -1.25324253911694
  H           0.18880240787962     -2.33652109542482      2.28548969344097
  H           0.63063902786457     -3.51636919900631      1.06113485098305
  H           1.86512231421243     -2.50961512906053      1.79752837820725
  H          -1.75660582250816     -3.07417719824484      0.87429805448014
  H           4.14874884444578      2.34164509254049     -0.87534927699576
  H           5.47490922407614      3.22031687469276     -0.13868095852730
  H           4.67211348141455     -1.02972595255819      2.32197421535274
  H           5.17162737725618     -2.20560041434881      1.11388427193535
  H           6.31542663413601     -1.00506266449521      1.69649421316896
  H           6.36810795003876      0.08040462299957     -2.89602970131408
  H           4.68725805919717      0.41658971861477     -2.52365973640788
  H           7.10726893827219      1.78285099436380     -1.29848224981841
  H          -3.91579489172125     -3.00342545975659     -0.17376407881344
  H          -3.59800605881685     -1.49881871862365      0.66200543631587
  H          -0.48962705975706     -3.97625925850285     -0.97343429797142
  H          -2.18270099100948     -4.17428772668713     -1.39759405001936
  H          -1.22749800790744     -2.87751889043024     -2.12849848351669
  H          -2.98160694500116     -0.46967038767580     -1.60315737054237
  H          -3.50420669572957     -1.97418376426344     -2.35508700875397
  H          -6.60702123052900      2.03609028851422     -1.13050030197139
  H          -7.31561970636339      0.53410159398073     -1.73938959424082
  H          -7.14457141918232     -0.50165568183070      0.51135937511254
  H          -8.13626152034147      0.98105108334265      0.54094630266069
