26
Coordinates from ORCA-job 66841 E -390.588580448343
  C           0.65642147994473     -0.23468848087802      0.00482690917090
  C           0.07798400243613      1.15908888196018     -0.05049492400764
  C           2.15540129905362     -0.38592135440641     -0.14247292471073
  C          -1.32265409428304      1.23606230668699      0.57166761146802
  C          -1.62632262859323     -1.24776354230536      0.32052764867601
  C          -0.12868574819335     -1.29763047049352      0.17793012188664
  C          -2.18428394692629      0.12366044728992      0.05049021966801
  C           2.67281956208407      0.25540362777766     -1.43630400262152
  C           2.90872765567167      0.16456283620842      1.07671755242660
  C          -3.31031233454447      0.32825907343133     -0.62461301908636
  H           0.74286151170625      1.86189079397359      0.45831287283514
  H           0.03024015826137      1.49146522900867     -1.09323063626908
  H           2.36213488244866     -1.45911316402797     -0.19744038546309
  H          -1.22329977096854      1.13399941021866      1.65871930730717
  H          -1.77922726860778      2.20698795629362      0.37308210864174
  H          -2.09212237341628     -1.98210330447799     -0.34270775280194
  H          -1.89621122566855     -1.55598918106350      1.34117297554333
  H           0.32344534036878     -2.28448070671655      0.22006254878616
  H           2.53616829495196      1.33905211381383     -1.42573737005411
  H           3.74017081036675      0.06005409308349     -1.55964453028183
  H           2.15064939287433     -0.14177628114291     -2.30873166173550
  H           2.56623421440492     -0.31308949239380      1.99612723774653
  H           3.98143744196436     -0.01583910284925      0.97681373318159
  H           2.76691791698001      1.24235406875451      1.18260470404336
  H          -3.89446406868427     -0.49502685562295     -1.01878661876532
  H          -3.68817850363180      1.32818909787737     -0.80254172558408
