11
Coordinates from ORCA-job 66948 E -343.331931482286
  O           0.01622960879972      0.94061563247377      0.00003589627869
  O          -2.23283205436156      0.65353593963229      0.00010450425410
  C           1.10796885740244      0.10273618539524      0.00002064777323
  C           0.62774151326090     -1.26875329647943      0.00003467293572
  C          -0.70978848647038     -1.24496187698568      0.00006176521359
  C          -1.14387956912719      0.16383193385367      0.00007137151727
  C           2.35741122254673      0.56201240817197     -0.00000703150442
  H           1.28168161968110     -2.12710761333540      0.00002599299457
  H          -1.40757691950715     -2.06566739873095      0.00007897162735
  H           3.18350074043368     -0.13349954187291     -0.00002333411231
  H           2.56640746734171      1.62175062787742     -0.00002145697780
