19
Coordinates from ORCA-job 6736 E -403.065017388816
  N          -0.80510472853739      1.74916231965822     -0.05497886047360
  C          -0.20760043467843     -0.41386417703533      0.00540500981265
  C           0.28499139148931      0.91429857687257     -0.01775551130381
  C          -1.64197828397662     -0.34172779757098     -0.01949363925151
  C          -1.95743400241900      0.98690178716995     -0.05574945180068
  C           0.70441954667091     -1.47438100520302      0.04500845164469
  C           1.64770305408296      1.19987533740685     -0.00240689770913
  C          -2.58675627513888     -1.49683599909326     -0.00772242152665
  C           2.05919713902899     -1.19488844706446      0.06036285646708
  C           2.52558228240730      0.12986150247753      0.03686393446605
  H          -0.77210362463343      2.75145781944890     -0.07783962593730
  H          -2.92625158013930      1.45877445286088     -0.08246699694864
  H           0.35438442982772     -2.49909412226603      0.06335382278301
  H           2.01074332944102      2.22014678579519     -0.02045831714321
  H          -2.45737790606327     -2.10986863211368      0.88874521586766
  H          -3.62332365851349     -1.15828871912265     -0.03278731269131
  H          -2.42843889685511     -2.15146834379199     -0.86945618068179
  H           2.77499176486467     -2.00624794806830      0.09093594049405
  H           3.59151945314203      0.31756860963961      0.04970198393244
