47
Coordinates from ORCA-job 6759 E -1330.134374585337
  O           2.40858822762446     -0.88154363493017     -1.48255951435656
  O           1.95641949776678      1.82862577916066     -1.41101595389877
  O           4.47227254144895      1.51619392092857      1.21531050243181
  O           4.31925750863933      4.33331728013640      1.15370096034775
  O          -3.92357818627510      1.59699089300891      0.64572500517160
  O          -0.10676304523248      3.99633291707946      1.14443577176176
  N           0.36913690899934     -0.50332184977910      0.47677460429993
  N          -2.40176568225720     -0.72565087275080      0.21806648997149
  N           0.15973493817919      1.76975643129518      0.77474798431423
  N          -1.99404109198444      2.76174823007025      0.93721526548369
  C           2.79625879949099     -0.17229987226045     -0.31832309046031
  C           1.79504469485762     -0.41053148404020      0.84245681857712
  C           3.06406246520307      1.29095845981829     -0.69918327296697
  C           3.45355549663308      2.18463903917556      0.47401955117513
  C          -0.19414423271411     -1.72765584370592      0.15335482874254
  C          -0.41867258734468      0.60960871062331      0.57891119466691
  C          -1.60209240719969     -1.80704945033037      0.03340298626026
  C           0.56150891570335     -2.88544954283625     -0.05238956475012
  C          -1.84694477370996      0.41588670147105      0.47098636074888
  C           3.93832021193765      3.55172898076622      0.01939539002860
  C          -0.04391516222185     -4.09115694599227     -0.35563503164418
  C          -2.20099257251875     -3.04181592874409     -0.27255080408906
  C          -1.45735876490914     -4.18054037276654     -0.46448061363360
  C          -2.71618072070840      1.61325921497669      0.68304930754164
  C           0.80714502784300     -5.30474701243852     -0.58839698950417
  C          -2.12137199701808     -5.48704069266482     -0.79279029852066
  C          -0.59977192814959      2.90085023274326      0.96432217735504
  H           1.89765109025275     -0.25544105382803     -2.01811203995437
  H           1.27287513022570      2.02490257774240     -0.74039607472285
  H           4.87478851345906      2.18653271566229      1.78410041138177
  H           3.51588436303837      4.66652815915041      1.57119272840297
  H          -2.52562212714268      3.60948660142516      1.08372932425635
  H           3.74194218407367     -0.59500160358702      0.02248296543759
  H           1.88416442595044      0.37940637683818      1.58137899397451
  H           2.03980867511447     -1.35125668575402      1.32718539148483
  H           3.89231836044898      1.26208799581713     -1.41301381244482
  H           2.57057039690985      2.33829714718386      1.10491301919954
  H           1.63724805668802     -2.83864746423136     -0.03392409002518
  H           3.16921898668083      4.05077033992833     -0.57327119359433
  H           4.83861462479187      3.44218540796137     -0.58856439701586
  H          -3.28019780407763     -3.05340082282732     -0.35019470356992
  H           0.56057264051840     -6.10044880750779      0.11932349580231
  H           0.64413824898958     -5.71297944526136     -1.58895598734906
  H           1.86525071152403     -5.07121212824356     -0.48530961345939
  H          -1.88773498224235     -6.25210490299677     -0.04814875823858
  H          -3.20351118187699     -5.37310603996349     -0.83162939931690
  H          -1.78695639540981     -5.87293165552271     -1.75909532530256
