42
Coordinates from ORCA-job 6782 E -923.774217850055
  O          -2.06589130459504     -0.05869460643958     -0.22074477297658
  O           1.73148594958411     -0.26536923138351     -0.11136953785689
  O          -3.03478780978207      1.36874908120550      1.23142945464585
  O           0.19073492063212     -0.28584678768883      1.52829346678304
  C          -2.79233878862373     -2.27811189785772     -0.78624046617354
  C           3.34193354729092     -1.98699052437987     -0.58075998291527
  C          -2.98803369689590     -1.10103285235302      0.15390385423809
  C           2.24626703449977     -1.52736893945488      0.36452017166179
  C          -1.35860641889203     -2.80712478012730     -0.74438510961379
  C          -3.80262478531137     -3.37219269374817     -0.43697248311322
  C           4.50639352202661     -0.99792767745847     -0.62287328545776
  C           3.80865467701883     -3.38405813890385     -0.16844398830162
  C          -1.02788646399478      2.01296600617578      0.10707944645775
  C           0.30797771447168      1.59628484628261      0.06143746711187
  C          -2.14602685346255      1.08925047108674      0.46784920708853
  C           0.70302057029732      0.25413440417134      0.57897524419711
  C          -1.35252095597439      3.32320620051977     -0.22421206768962
  C           1.29087606683450      2.49205361428033     -0.35279823636403
  C          -0.36567976630055      4.21269395157514     -0.62772434557281
  C           0.95692547034477      3.79459052996059     -0.69784842134600
  H          -3.00120752970999     -1.92460540511120     -1.80197841310612
  H           2.90224771460817     -2.04968189193313     -1.58202561780852
  H          -2.77913207268145     -1.37953294722930      1.19014622828255
  H          -4.00515611522591     -0.71067474779540      0.10333302912541
  H           2.62567922182256     -1.38927754538145      1.38040904349122
  H           1.42616062001886     -2.24408589340102      0.40747494743371
  H          -1.09800793257467     -3.13185711399204      0.26652814716403
  H          -1.24357051781747     -3.66102563449800     -1.41516067737341
  H          -0.64711835769512     -2.03892204800021     -1.04535250632827
  H          -3.63154331251896     -3.75214498304949      0.57388050903452
  H          -4.82928811433961     -3.00321876071360     -0.48754682026383
  H          -3.71363876342973     -4.21318059691802     -1.12656844360658
  H           4.96964948021462     -0.90546110604314      0.36375985016199
  H           5.27472438622430     -1.33373617884430     -1.32179239512632
  H           4.17424485836519     -0.00785935375468     -0.93526099059724
  H           4.23977271120009     -3.37157796938267      0.83634957590982
  H           2.98428775225982     -4.10023964976957     -0.17149763764608
  H           4.57531347128930     -3.75113453102746     -0.85253005190399
  H          -2.38753229511210      3.63256338320265     -0.16983596103358
  H           2.32093578677798      2.16627236598863     -0.38145395893649
  H          -0.63040287825142      5.22903639642215     -0.88884179430444
  H           1.73041325740728      4.48359823576867     -1.01113867737127
