68
Coordinates from ORCA-job 68051 E -1314.351928657698
  O          -2.27888986881391      0.91796843499433     -1.21084290946781
  O           1.75520783470755      1.40005792639208      1.17206423580079
  O           0.24333826301706     -2.87315433618380     -0.09560073024543
  O           2.42506212488228     -2.71828495039662      0.91859329075144
  C          -0.22344771750972      1.29139500157759     -0.10971721754873
  C           0.34201768496054      2.16270735417014     -1.27626927291732
  C          -0.94591340389535      2.20686086394970      0.92165974242149
  C          -1.21294148959087      0.31717365585418     -0.65806748453518
  C           0.98748472286211      0.64429544004063      0.58800024696740
  C          -1.07384219726243     -1.02841266353682     -0.62318846807202
  C           1.16365043639756     -0.78760979826865      0.50637206420911
  C           0.12984416124890     -1.57033524880228     -0.05752199309504
  C           0.92254384682783      1.34812067170455     -2.39291582859452
  C          -1.55603092966389      1.42148599321082      2.04139326806060
  C          -2.11903124642562     -1.95989421247907     -1.20168436037935
  C           2.35504651468459     -1.46616255067662      0.97368689128407
  C           3.53828169861834     -0.71355873522547      1.52391080168134
  C           4.83364895818243     -1.52362881803673      1.59738481415497
  C           2.21036288900522      1.10111378893755     -2.64124588253578
  C          -2.85122227975856      1.22550281513843      2.29750523777776
  C          -3.50289236317087     -1.66799496407441     -0.68727271817054
  C           5.38340727316370     -1.81445029983409      0.19928043232213
  C           5.86587346795715     -0.77432056138651      2.44111522499107
  C           3.35811264043194      1.63436662051190     -1.83300995449301
  C           2.61501725803289      0.22475943486772     -3.79377585737033
  C          -3.28443266685562      0.36380821732699      3.45124254529689
  C          -3.98364244058424      1.81235660584102      1.50342075553439
  C          -4.61782224782552     -1.42939000166341     -1.38864672432623
  C          -4.70139581487334     -1.41712035442289     -2.88979926653003
  C          -5.92225346674262     -1.16711385620800     -0.68796248465370
  H          -2.99899691061614      0.26974610869394     -1.32650849943208
  H           1.17704095233338     -3.07425153453085      0.33259705444216
  H          -0.48034762743004      2.77214848620995     -1.65628579041647
  H           1.07435407511775      2.83403108148515     -0.83219955585621
  H          -0.18317521452073      2.88227366209926      1.31142560556517
  H          -1.68598385619568      2.80105614228794      0.39134757723309
  H           0.19178626007321      0.88842591132739     -3.05280022721053
  H          -0.83866514011867      0.93513023072024      2.69708957074723
  H          -2.08545877587520     -1.91923017909343     -2.29278768428739
  H          -1.84651287153469     -2.97937112018836     -0.92883669864900
  H           3.68051184653367      0.20357172322750      0.95252919189211
  H           3.24538523249722     -0.35610555043579      2.51752263194512
  H           4.61512494854418     -2.47827167747750      2.08162349166011
  H          -3.57736605834383     -1.64757285765090      0.39683757769447
  H           4.66425620941682     -2.36909930941289     -0.40363701949099
  H           5.62241352793912     -0.88165552036338     -0.32075579282962
  H           6.30014767210700     -2.40534162931568      0.25524492642251
  H           6.79869770627760     -1.33822203230154      2.50913440144298
  H           6.09750896916779      0.20028555484740      2.00178890833206
  H           5.50143345800674     -0.60237267409799      3.45643858612906
  H           3.04697873609251      2.23361935703636     -0.98185118523205
  H           3.96306004986866      0.80595384061680     -1.45240464619590
  H           4.01964550874706      2.23585164000578     -2.46456445846910
  H           3.17650224396302     -0.64500904357875     -3.43802730527480
  H           1.75144685887830     -0.13128005545035     -4.35576001417477
  H           3.27580798899571      0.76273036442064     -4.48098480357838
  H          -3.90388014636352      0.93030721805385      4.15399102984863
  H          -3.89847820672993     -0.47340569499640      3.10192989436204
  H          -2.43219203770998     -0.04244600100730      3.99564227892083
  H          -4.62760713089557      2.41743125200764      2.14936439906109
  H          -3.65164459160325      2.42998890307778      0.67344081160766
  H          -4.61424871466366      1.01577889800165      1.09623114136790
  H          -5.14969946737174     -0.48308856455646     -3.24148035107730
  H          -3.73739270802759     -1.53779568088385     -3.37892724136718
  H          -5.35500027331308     -2.22352165491340     -3.23560333041853
  H          -5.81396209766167     -1.19917111567313      0.39574230990541
  H          -6.32620667756142     -0.18887838845780     -0.96636819635906
  H          -6.67207138003083     -1.90884656305580     -0.97949998657864
