28
Coordinates from ORCA-job 68079 E -877.402335790399
  O           2.97668269403160     -1.13850796744465      0.22142611243570
  O          -1.79621196164556     -1.26083523263824      0.05052106104171
  O           0.61011277362601      2.89506691007786      0.13841196122565
  O           0.58026751933846     -2.69618900605125      0.17785336603691
  O          -4.01121073843582     -1.34544653437494     -0.05246754965229
  C           1.79517684818768      0.79470258338790      0.16505577016225
  C          -0.60237111029322      0.83508139820831      0.05993691861015
  C           1.72822977552352     -0.60803246729929      0.15322061593511
  C           0.61489141417461      1.52636784669481      0.10658585543478
  C          -0.61817276339278     -0.57871416712450      0.07019935079029
  C           0.54933321057862     -1.34161402428727      0.10715579010020
  C           3.19796159743444      1.10902656224030      0.25464168075286
  C          -1.86997418419201      1.50406111073920      0.02189483089980
  C           3.84219464198988     -0.07450059389204      0.28433304346798
  C          -3.02364877947218      0.81168058542504     -0.01196490578252
  C          -3.03998479966996     -0.63956959955036     -0.00922096019099
  C           1.04899940399891      3.52660981023207     -1.06681672684289
  C           0.04474115577098     -3.41070390030305     -0.94495606169273
  H           3.65126670504453      2.08340623453303      0.30852904103756
  H          -1.87154931207529      2.58577270083476      0.03008247320459
  H           4.88382011215696     -0.33516509451322      0.35159720515866
  H          -3.99033365917252      1.29225420489550     -0.04130483454849
  H           1.02728284512853      4.59779392133083     -0.87854524631195
  H           2.06406633597981      3.22089025735027     -1.33014049233399
  H           0.37601156361035      3.28349380266461     -1.89423749921879
  H           0.27608765031478     -4.45798917500001     -0.76552891700587
  H          -1.03361766058902     -3.27643916594116     -1.01995347844541
  H           0.52909172204865     -3.08217400019449     -1.86842640426827
