20
Coordinates from ORCA-job 68073 E -610.511802108566
  O           0.64931491052143      2.22930450831515     -0.19864768793612
  O           0.47235901968933     -2.46386010174187      0.16522948966595
  O          -3.58451950872108      0.10200257530739     -0.03764258560926
  O           2.64116381086155     -0.65965631178192      1.00852285181748
  C           0.57529027195467     -0.11839725898958     -0.00876281366491
  C          -0.10704773024067      1.09572005982406     -0.12326664401552
  C          -0.19303615434889     -1.28151472420883      0.09270819638889
  C          -1.49466784227795      1.16507112643045     -0.12672871263345
  C          -1.58517745015038     -1.23819129229501      0.07723084087738
  C          -2.22723838489431     -0.00953329173228     -0.02631843116376
  C           2.07913465976875     -0.18817979231753      0.04827207230764
  C           2.83282337194779      0.29881924733116     -1.16460672594833
  H           0.07142528697975      2.99889584350200     -0.24442513306184
  H          -0.15824996678345     -3.18864920177955      0.23529561245331
  H          -3.98428426977718     -0.76982282203747      0.05679194196705
  H          -2.01208401748034      2.11340165040739     -0.19478055017157
  H          -2.15969479705654     -2.15632051694657      0.14008390328245
  H           3.90099545436762      0.31068945075624     -0.95650628500211
  H           2.63014549592557     -0.38539758514384     -1.99429180290077
  H           2.48876183971435      1.28764843710063     -1.46577653665251
