24
Coordinates from ORCA-job 68082 E -762.902755263065
  O           3.08722793107388     -0.49455644780259     -0.32716876281702
  O          -1.32258033443681     -1.70976610130740      0.21881553851241
  O          -0.36575599752397      2.90122326311977     -0.34243096384208
  O          -3.40164454664392     -2.45203203190255      0.49385503906120
  C           0.91928501534401     -1.04224077762062     -0.06381803494239
  C          -0.43206692323221     -0.70977923490840      0.03170786337535
  C          -0.83639756118465      0.62373686836672     -0.06541042121659
  C           1.82502549058017     -0.00044125567913     -0.25668345264384
  C           0.13773376385062      1.64472144421449     -0.26270199609402
  C           1.48532285494133      1.34543824144439     -0.36127456788926
  C           1.69803892534959     -2.24839706183396     -0.01541666588291
  C          -2.23776542731870      0.89200016495003      0.04140186520124
  C           2.97915676340733     -1.86082372044495     -0.17757101437787
  C          -3.12314072969000     -0.10834688541418      0.22809682004024
  C          -2.70185640638369     -1.49055432387251      0.32870017383161
  C           0.53776300983979      3.97801189271249     -0.53876146860031
  H           2.24561172258545      2.09467180308956     -0.51058148461114
  H           1.33887786710587     -3.25335320074039      0.12137732747174
  H          -2.57372239621503      1.91714844975268     -0.03091239563728
  H           3.90881225119341     -2.40032417715578     -0.21156913365934
  H          -4.18552286040492      0.06621082642775      0.31201299836480
  H          -0.07166921398985      4.87740820069322     -0.57187847191910
  H           1.25070171010764      4.04955388887850      0.28719903610053
  H           1.08104409164467      3.86946817503283     -1.48145382782595
