39
Coordinates from ORCA-job 68128 E -585.885039961479
  C          -1.07526796476378      0.64162052089722      0.21143328010789
  C          -1.65700289573639      0.30393497010089     -1.16878706183968
  C          -2.22668690033638      0.86789496077588      1.20022881761706
  C          -2.48337894798577     -0.97917081872493     -1.11352465151788
  C          -0.09232821231226      1.79584880764073      0.16766495578870
  C          -3.40465314752631     -1.04347799379967      0.07848209094603
  C          -3.28125006041909     -0.19728878643385      1.10069935508877
  C           1.34967404349779      1.44845306235684      0.42021777292940
  C           1.96535636036101      0.56980082736616     -0.68950862760450
  C          -4.45317790753149     -2.11595613157691      0.04293088332041
  C          -0.46816598350103      3.04283397968785     -0.10529013932153
  C           3.39896852920793      0.23395719957769     -0.41340279594932
  C           3.90490047747810     -0.93579388458190     -0.01691381919875
  C           5.37794725788843     -1.09574709349337      0.24049371750763
  C           3.09508366472170     -2.18083950003054      0.21385906536755
  H          -0.53170153152472     -0.24550962255709      0.55587468533163
  H          -2.28628098121243      1.13710589762796     -1.49477394688224
  H          -0.85745301440384      0.20943546091700     -1.90600982725775
  H          -1.83120881533946      0.90454987101910      2.22001700310490
  H          -2.67433266248218      1.85251091477179      1.02569321865264
  H          -3.07373281326296     -1.08221711541628     -2.03040824560099
  H          -1.82032753100545     -1.85441645459004     -1.09623754660497
  H          -3.97828623390447     -0.27158659490711      1.93063489720878
  H           1.94137957361462      2.36095580169154      0.52446288791374
  H           1.43209209623193      0.90506837419539      1.36817369514446
  H           1.36827956946030     -0.33408285027132     -0.81152563609820
  H           1.89372968907905      1.11736006934317     -1.63462184562992
  H          -5.05638596982564     -2.12111299804389      0.95124270729560
  H          -5.12219268277696     -1.98298390879473     -0.81341593670570
  H          -3.99626751223285     -3.10490629890169     -0.06940358005361
  H           0.25099363785489      3.85200660193903     -0.14349825632548
  H          -1.50067120592111      3.30576613034804     -0.30099113941997
  H           4.09274554251938      1.06409686537090     -0.52675307111503
  H           5.56289298869667     -1.40775293287097      1.27362348724489
  H           5.80445029287677     -1.87412579429697     -0.40079043096161
  H           5.92256740406657     -0.16875410750864      0.06059400346261
  H           3.22004497156489     -2.52962636333268      1.24386956298462
  H           2.03114430179845     -2.04115804931379      0.03517340047023
  H           3.44450357308609     -2.99224701618081     -0.43264392940043
