20
Coordinates from ORCA-job 68148 E -424.114445567840
  O          -3.56921945687226      0.29843953813700      0.29818461634602
  C           0.50685958525026     -0.33739723042921     -0.32556742550462
  C           1.98232891810801     -0.58057403950941     -0.56481871108351
  C          -0.41051237921583     -1.38626375602279     -0.31950768142102
  C           0.02405645416512      0.95170234812910     -0.10869748597083
  C          -1.76518392868242     -1.16717532054973     -0.11191974832595
  C          -1.32730449842457      1.18908510569350      0.09847574022488
  C          -2.22778567791424      0.12685083149423      0.09715469921132
  C           2.85003857275034     -0.03277703303732      0.53054358340503
  C           3.79446308828231      0.88465329058328      0.36574376690031
  H          -3.75726900969100      1.23414817720440      0.43137820452950
  H           2.14638932306608     -1.65903006406382     -0.65185059383398
  H           2.28669379714116     -0.13937127614654     -1.51903774859212
  H          -0.06059971454389     -2.39903583591045     -0.48203043504803
  H           0.71698993881301      1.78406846587298     -0.09452533961343
  H          -2.47164698091522     -1.98646192405687     -0.10805925648808
  H          -1.68289431812038      2.20051966052649      0.26431857885820
  H           2.65335672861247     -0.42448965355004      1.52522011795574
  H           4.38709829848000      1.24672461590339      1.19631153151801
  H           4.01114125971106      1.30413909973181     -0.61085741306745
