23
Coordinates from ORCA-job 6826 E -554.733312775368
  O           2.50149890171910      0.68606716819008     -0.11680371781789
  O           1.78214411806559     -1.43466678966112     -0.11980790201934
  N          -0.86099455470436     -1.85981813310097     -0.02531464446509
  C          -0.97463400527650     -0.50961126459751     -0.00057739038256
  C           0.17440116250856      0.33648288938591     -0.03208759282430
  C          -2.24294507211237      0.10724282419126      0.05748199716576
  C           0.00555403202793      1.72668340535998     -0.00482469310135
  C          -2.36794506680354      1.48072806473968      0.08284826546497
  C          -1.24477622819142      2.30804216923728      0.05195996942849
  C           1.52148034323568     -0.24147909540799     -0.09247492868140
  C          -1.97863755753049     -2.76783847984000      0.00367279192676
  C           3.83956452581476      0.17895606638285     -0.17545554886711
  H           0.08223789661753     -2.21814986037370     -0.06679700216331
  H          -3.13038163912738     -0.50763647284906      0.08250297671385
  H           0.88928259937256      2.34667258541627     -0.02957493941193
  H          -3.35848697110668      1.91701083432135      0.12752905132815
  H          -1.35002443166334      3.38384764369580      0.07203598172547
  H          -2.57626274011400     -2.65634938572056      0.91505663008315
  H          -2.64410374106790     -2.62930331111966     -0.85548387161480
  H          -1.59587672319772     -3.78612409805418     -0.02641654239469
  H           4.05464527196974     -0.43972078978447      0.69549576230974
  H           3.98597124924030     -0.41606534462193     -1.07659865721561
  H           4.48166863032396      1.05565937421071     -0.18858999518698
