13
Coordinates from ORCA-job 68352 E -344.543380859688
  O           0.91182168532819     -1.12535396696615     -0.04680099079495
  O          -1.30361194309223     -1.49665750518700     -0.02201708797096
  C           0.98900461983882      1.24506416872191      0.20573800590662
  C           1.80461343946011     -0.00015980994830     -0.17571350758199
  C          -0.42194695153842      0.76966225598336      0.02299278831707
  C          -0.38940800548041     -0.72339276427180     -0.01846579803773
  C          -1.55056624174195      1.45431101256232     -0.10087610268626
  H           1.16633528435092      1.51206587782597      1.25081300259115
  H           1.23883383127843      2.11013475453464     -0.40734037671230
  H           2.65674527077818     -0.18154595506515      0.47566708649485
  H           2.14861620998492      0.03962267935532     -1.21110363072927
  H          -2.48798926395953      0.92616151024615     -0.22179280460428
  H          -1.57286193520704      2.53655974220872     -0.08514658419194
