26
Coordinates from ORCA-job 68381 E -539.845515703446
  O           0.24904698653823      2.08934935445869      0.05466823027158
  O           3.81190509555364     -0.11816109598103     -0.06754705105001
  C          -3.52188456681191     -0.04142377670049      0.04223733027113
  C          -2.23843592942951      0.80447280481517      0.04825145136509
  C          -0.94069856560838      0.00850021949990      0.00751166009318
  C          -3.64505873525951     -0.92968600358696      1.28250875448564
  C          -3.67694204186447     -0.86328297580698     -1.23956861437545
  C           0.30280545415805      0.87567518607912      0.01602486970767
  C           1.60057413979158      0.17369157028383     -0.02527303226929
  C           1.88179966755897     -1.23626728040055     -0.07404551899930
  C           2.81681676457765      0.79026650954103     -0.02394720170579
  C           3.22773719403552     -1.35393894644261     -0.09787848101442
  H          -4.35166900251527      0.67348493541414      0.07164961167593
  H          -2.25511478272595      1.48874240621833     -0.80330059402745
  H          -2.23079788453766      1.43977524259449      0.93701942213080
  H          -0.86585328175620     -0.67810031861423      0.85752857236767
  H          -0.88957719139328     -0.62721766691547     -0.88282667985256
  H          -3.53189628268588     -0.34782395807180      2.20014374703962
  H          -4.62048508523900     -1.41972000083143      1.31448904261758
  H          -2.88739658493329     -1.71734647914083      1.28971980948135
  H          -4.65353448619996     -1.35085850613933     -1.27315331456423
  H          -3.58553137335510     -0.23409899398711     -2.12795284846156
  H          -2.92071024955850     -1.64947390001075     -1.30649356110606
  H           1.17320928425334     -2.04638295705081     -0.08909841532148
  H           3.09894797691380      1.82735205403779      0.00460540265478
  H           3.90138948049312     -2.19117442326212     -0.13447959141442
