23
Coordinates from ORCA-job 6853 E -501.327830402822
  C          -0.00000555553858      1.84049045027278      0.00864757591839
  C           1.17903859206898      0.89859578837837      0.00550370043023
  C          -1.17905612001292      0.89859912672893      0.00547381903712
  C           0.73133561025278     -0.43212586369830      0.00105296233519
  C          -0.73136101527010     -0.43212459753068      0.00102705597859
  C           2.53336427335044      1.18296256396761      0.00645019846084
  C          -2.53338217734553      1.18296866001044      0.00639498277187
  C           1.64203691512525     -1.48255203099588     -0.00245138396874
  C          -1.64206497579783     -1.48255024964291     -0.00251130199169
  C           3.44524206412457      0.12927424104840      0.00292126031118
  C          -3.44526395917255      0.12928359314924      0.00283946754427
  C           3.00145836603505     -1.19175423866963     -0.00148332069121
  C          -3.00148544154505     -1.19174769016206     -0.00157215961182
  H          -0.00001461308358      2.49091455474417      0.88889166388182
  H           0.00001190894080      2.49685140311717     -0.86717208110508
  H           2.88485883508074      2.20792436862938      0.00989111837806
  H          -2.88487063659365      2.20793129625463      0.00983711437652
  H           1.30269636085503     -2.51088039729095     -0.00588522187729
  H          -1.30272366615017     -2.51088088249911     -0.00594335256799
  H           4.50747183988556      0.33780680874822      0.00361039273016
  H          -4.50749273411221      0.33782096467861      0.00351512684164
  H           3.72350188715126     -1.99840432066946     -0.00418043554877
  H          -3.72353475824831     -1.99839254856898     -0.00429018163326
