26
Coordinates from ORCA-job 6858 E -689.066410657066
  O           2.15522129845743      0.63792672658904      0.18102620686552
  O           0.07283065319162      2.34838595107669     -0.05377309163014
  O           1.66957560250359     -2.14352324216065      0.29656822504053
  O          -4.08641152124372     -0.76344532983698     -0.04849433959329
  C           0.88728928205289      0.15281089957649      0.06293875173923
  C          -0.22522209356948      1.02332908863809     -0.02651013110101
  C           0.67423351684830     -1.22804924865964      0.14750246856407
  C          -1.70803491642956     -0.86352422954565      0.05095335228967
  C          -1.51154446419527      0.51676888377106     -0.04336537511606
  C          -0.62751126666167     -1.72547810831610      0.14868753774199
  C          -3.07251620742060     -1.41727764388876      0.04497841384775
  C           2.68500263239354      1.37798767357838     -0.92403260104796
  C          -1.00498294984927      3.27353898828724     -0.07477241756512
  C           2.86335363431380     -2.02435710686873     -0.47698319370090
  H          -2.38005234304013      1.15386665418623     -0.10787261088143
  H          -0.77079865564909     -2.79609140009569      0.21983277822200
  H          -3.11868655379726     -2.52210917491113      0.13641790430221
  H           3.72243593726071      1.58750435307171     -0.67216133351832
  H           2.64586966169877      0.77804028804762     -1.83783737972979
  H           2.14282545357700      2.30962972901094     -1.07284813410290
  H          -1.63928621634500      3.15890926252257      0.80787288511454
  H          -0.54918905196913      4.26052448109831     -0.07053806482110
  H          -1.61293956409844      3.15440307737758     -0.97550745566688
  H           3.29368837269776     -3.02382982222811     -0.51089776292631
  H           2.63488762519406     -1.69775926543410     -1.49498081964992
  H           3.56767713407914     -1.33182148488640     -0.02009481267639
