52
Coordinates from ORCA-job 688025 E -1059.634743439018
  O          -1.20812789629044      0.19539195002067     -1.46631770076001
  O           2.21927745944770     -0.64481163632365     -2.38237448122984
  N           0.49775158063907     -1.63915196081075      0.26261376570595
  C          -0.87069614701695     -2.16745389634549      0.11479289210218
  C           1.44521700861934     -2.58301611084182     -0.35407177366829
  C          -1.03866386760754     -3.50962492403213      0.83553305583200
  C           1.43037049267445     -3.94985005221473      0.33496330583548
  C           0.00386975956283     -4.52120305261370      0.33692409329093
  C          -1.92992302028661     -1.12611028964018      0.46954991165469
  C           2.83033704273458     -1.94247231520645     -0.49727655407457
  C           0.83990968332116     -1.24318877295681      1.62508612125481
  C          -1.61510653610402      0.27120532365887     -0.10561566447040
  C           2.63287683247066     -0.62658818461519     -1.23981746035662
  C          -2.81837839229038      1.17316389641701      0.00650783365306
  C           2.85631026438986      0.66757788496321     -0.53492715675869
  C          -3.66121144083583      1.39415678823247     -1.07944867628815
  C          -3.12512976023756      1.76672147801924      1.22956237083193
  C           3.78033081886574      0.80938796952106      0.50100656415937
  C           2.09892880342840      1.77269437349547     -0.93148797319206
  C          -4.79238741123801      2.19024273421579     -0.94054416221943
  C          -4.25694988098088      2.55886184723984      1.37158506402362
  C          -5.09663772220055      2.77236127709682      0.28417180723086
  C           3.95236299381607      2.03808283801983      1.12512290010015
  C           2.25011090113733      2.99059240242892     -0.28880469377384
  C           3.18059310984939      3.12688225596996      0.73786985081899
  H          -0.33998851402554     -0.23099261704149     -1.46908918309587
  H          -0.98010135053713     -2.36192499506172     -0.95656973969339
  H           1.08395630268646     -2.72280452509435     -1.37697269596092
  H          -0.94170755258791     -3.36315532727362      1.91541876705925
  H          -2.04610943438771     -3.89762476678211      0.66468381501220
  H           2.10565350023872     -4.63385161467218     -0.18554053484479
  H           1.80638090450556     -3.86002970688957      1.35810012356079
  H          -0.03601316513664     -5.43425459404784      0.93539077712200
  H          -0.25454152433463     -4.80942887798498     -0.68770334927133
  H          -2.88669778076894     -1.46617805180673      0.06633435656236
  H          -2.06306646700410     -1.04118828490994      1.55158914479793
  H           3.31087661174514     -1.81780357013245      0.47104458285837
  H           3.45711639786475     -2.59414428082136     -1.10827224608504
  H           0.93573314495868     -2.07647340421692      2.33246026871739
  H           1.77577192089723     -0.68861106810253      1.62835720194609
  H           0.07509391702834     -0.57369180220098      2.01180152293688
  H          -0.80333686766066      0.71523644170180      0.47967942627254
  H          -3.41579673646291      0.94891686464136     -2.03323824352462
  H          -2.46729424257925      1.61428841780164      2.07805325546256
  H           4.38438009164432     -0.03286999005099      0.81101127352191
  H           1.38167112603354      1.65386163469362     -1.73183880984017
  H          -5.43707111211548      2.35850527595603     -1.79431380304068
  H          -4.47906187516750      3.01582663422975      2.32784053633812
  H          -5.97718609162394      3.39328250345448      0.38970256354778
  H           4.68341930260224      2.14387668025538      1.91623674336953
  H           1.64284965249015      3.83550318771646     -0.58666493199264
  H           3.30253216582941      4.08065601294097      1.23533193856161
