16
Coordinates from ORCA-job 6885 E -458.873375713383
  O          -2.07225774224876      0.84702828290483     -0.00814560648206
  O          -2.37423494793023     -1.38917446656884      0.00062622681241
  C           0.25582271391530      0.91089025043259     -0.00626469208431
  C          -0.15143026370239     -0.41210545476972     -0.00128688790874
  C          -0.97200261329573      1.77114942322188     -0.01100413222738
  C           1.60312353114899      1.23545832749391     -0.00624617500400
  C          -1.62782627896016     -0.45363544886099     -0.00247695668960
  C           0.75690910940988     -1.46085375443621      0.00385500914880
  C           2.52337615370202      0.19167556419903     -0.00111761824891
  C           2.10784904761867     -1.14286783275803      0.00387801845962
  H          -1.04984061532299      2.39895421363514     -0.90167187222110
  H          -1.05156765223202      2.40662334942484      0.87403073403245
  H           1.93830907984134      2.26505307593422     -0.01009156657813
  H           0.41044132188120     -2.48576447150210      0.00767742687926
  H           3.58233280987297      0.41637507551900     -0.00097558361858
  H           2.84904334630191     -1.93118013386958      0.00779267573028
