24
Coordinates from ORCA-job 689075 E -687.919088906504
  O          -3.75247679298412     -1.76810310003425      0.08881238198112
  O          -4.59641340483849      0.77840562183880     -0.06555222090598
  O           4.23851242581931      0.79859648947218      0.01503135729304
  O           3.60297973868608     -1.36115566528990      0.13676257852468
  C          -0.51738808142785     -0.05022897880604      0.02143724088633
  C          -1.48572245712876     -1.06172161448840      0.07022399992505
  C          -0.94451462621677      1.28047824144429     -0.05908883006208
  C          -2.83631408241917     -0.76459368454260      0.04005700311083
  C          -3.24173752197169      0.57073492078829     -0.04055457336888
  C          -2.29514934425001      1.58483051552842     -0.08959139825504
  C           0.88581265523986     -0.43400356481648      0.05693984743681
  C           1.95447098150055      0.37205848037707      0.01939642825490
  C           3.31224783476597     -0.18917552248341      0.06491468032629
  C           5.60382607874573      0.36599316702393      0.05301201439787
  H          -4.63639899250285     -1.37853092688865      0.05787803766018
  H          -4.79019573394638      1.72014854032393     -0.12149755046104
  H          -1.18861575416994     -2.10063506433442      0.13278299152699
  H          -0.22322465307186      2.08417224416668     -0.09813810111787
  H          -2.62106535683438      2.61727493523852     -0.15193780659235
  H           1.08602146823200     -1.49916043704181      0.12128800070335
  H           1.87843875359166      1.44879207715912     -0.04472126811481
  H           5.80737724385936     -0.17875619860313      0.97487178244589
  H           5.82362270914128     -0.28286550593890     -0.79474039270989
  H           6.20097791218045      1.27283602990676      0.00514679711460
