23
Coordinates from ORCA-job 69068 E -649.757753088487
  O          -0.95609468539370     -2.05420229778565      0.18007001179307
  O          -2.37248957931309      0.14797448763504     -0.21272910851373
  O           1.82940338032081     -1.85649156865108      0.19539256483897
  O          -0.97777955495548      2.59530006072722     -0.43445506342006
  C           1.85723952492230      0.48522512616146     -0.05443966439482
  C          -0.30950032191428     -0.87921129407535      0.06885687211582
  C          -1.03600206639687      0.24322799974217     -0.19220120872784
  C           1.16832445410206     -0.83602270192980      0.09236287599187
  C           1.12359045712474      1.57880314582099     -0.27347861455396
  C          -0.34993737426511      1.55400878592644     -0.32537363832530
  C           3.34674155860384      0.47598764702057      0.03396677617411
  C          -0.57365271072739     -2.98206554020526      1.20656092981787
  C          -3.16694200108529      0.98941247814997     -1.06314176150882
  H           1.56620528110842      2.55936783456481     -0.39950664945807
  H           3.67142482156024      0.09012158596325      1.00266514939370
  H           3.77008293174167     -0.19309794603640     -0.71750407151843
  H           3.75074886149209      1.47745938236211     -0.10552176002558
  H          -0.32617680071826     -2.45495908836547      2.13012771318779
  H          -1.45046872233537     -3.60525494441187      1.37083405755823
  H           0.27363363729445     -3.58625099224800      0.89314504409047
  H          -4.09717605658737      0.44332233930068     -1.20708743200185
  H          -3.35522623666039      1.95196980674538     -0.59533638980017
  H          -2.67949179791802      1.14338669358878     -2.02617763271327
