30
Coordinates from ORCA-job 6908 E -468.032483924258
  C           0.58908002806857     -1.26932368164642     -0.06447507482773
  C          -0.80632284241179     -1.14484068618163     -0.04321629463517
  C           1.39517536310789     -0.12591251038182      0.01212355750047
  C          -1.39532465714631      0.12606661667190     -0.01154160434282
  C           0.80617846664729      1.14500322958650      0.04382880900529
  C          -0.58921515038296      1.26949954049176      0.06511645204147
  C           1.22439330525047     -2.63473297405582     -0.19278620980911
  C          -1.67527194774921     -2.38147828145506     -0.03148073775639
  C           2.89856968651464     -0.26443490545313      0.08340600005817
  C          -2.89872860475850      0.26459366047638     -0.08288281339706
  C           1.67539416586991      2.38146789079180      0.03220481242035
  C          -1.22447299493150      2.63492711339485      0.19372412028610
  H           1.41322663823323     -3.09553214284979      0.78316451024222
  H           0.59071165189227     -3.31811013870580     -0.75475546571466
  H           2.17787626351997     -2.58331652566777     -0.71488741947172
  H          -2.60906021979928     -2.20775347709704      0.49974168041865
  H          -1.93424649620613     -2.71370696484101     -1.04292286411826
  H          -1.17799939275741     -3.21333386866957      0.46362112347394
  H           3.34773192202188      0.54989723418095      0.64859838326107
  H           3.19067042308284     -1.19090218376071      0.57408271533250
  H           3.36074424650835     -0.26371303626905     -0.91000289774604
  H          -3.36103409095746      0.26304921706732      0.91046342454102
  H          -3.19089731545045      1.19133947379345     -0.57296206126695
  H          -3.34775217691045     -0.54935305576071     -0.64874072424443
  H           1.93679375936587      2.71193148384782      1.04360491100011
  H           2.60793159660133      2.20811370234237     -0.50138823084212
  H           1.17744219384621      3.21431299253475     -0.46049465394111
  H          -0.59113069742155      3.31787335775837      0.75662195621351
  H          -1.41248974467828      3.09632787773420     -0.78209774262061
  H          -2.17834237896943      2.58335204212290      0.71508533893932
