80
Coordinates from ORCA-job 6916037 E -1210.200935421850
  O           7.04737040861764      2.54284242500833      0.46341795314065
  C          -0.70053913313862     -1.41465977715542     -0.42298960733970
  C           0.44451683052003     -1.95103545503145      0.46343199326996
  C           1.83700123628724     -1.47141417619526      0.07682851143919
  C           1.87920674839277      0.06879918518608      0.06998471226043
  C          -1.91186408237930     -2.13948159343237      0.23099277240163
  C          -0.66792646546447      0.11179917916446     -0.29671305696828
  C           3.26167492971503      0.62076474030369     -0.38611598606757
  C           0.18433274353962     -3.45446193663420      0.55302693771523
  C           0.69722355691869      0.68223429790777     -0.69805589905642
  C          -1.35879526492521     -3.56350471798592      0.53567735626341
  C           2.88856091408444     -2.01083181436761      1.04570417884621
  C          -3.25376806366248     -2.19190613167893     -0.51977966943995
  C          -0.55065109710956     -1.84408667395635     -1.89108879110099
  C           4.38864767546234     -0.14361210864884      0.30163354907510
  C           3.35754775734078      2.11028144108663      0.03368609904574
  C           4.19593240631685     -1.29256890424810      0.94596858920868
  C           3.44366626514832      0.50035005643719     -1.91345300269467
  C           5.76324237791600      0.47198848322309      0.22184091089936
  C          -3.82524185922408     -0.82556260433687     -0.93737370216689
  C           4.74732023229987      2.72579951325327     -0.11301748571822
  C           5.77361568762639      1.93237793005458      0.67148858626330
  C          -4.29118839674326     -2.97889749066966      0.29199873279345
  C          -4.15704125884130      0.13303090318514      0.20812772674441
  C          -4.55782519599309      1.54153188000766     -0.26058824287405
  C          -4.43481384259142      2.60356373809275      0.85826609420692
  C          -5.94851264903501      1.52298594901181     -0.91577161917485
  C          -2.97911560762817      2.84230198334204      1.26842054444288
  C          -5.29533453699436      2.29618204311307      2.08623249691444
  C          -6.38045487615908      2.83911900188515     -1.55955791022533
  H           7.71152263170369      2.04070510314147      0.94838003102913
  H           0.25038682186617     -1.53795346939620      1.46382605477090
  H           2.07974807667636     -1.84210937497892     -0.92422502570135
  H           1.76731474894129      0.37069001919023      1.12033477035944
  H          -2.08633871107503     -1.63977641938520      1.19042032847064
  H          -1.43824028490030      0.58628174266161     -0.90513150727465
  H          -0.88175985500948      0.38009205484840      0.74257585664549
  H           0.62423352456398     -3.97072789130204     -0.30377189009601
  H           0.62155272231831     -3.89900967230072      1.44730849129306
  H           0.68172640163043      1.76264791206497     -0.54306919645976
  H           0.83499413052313      0.53446227010451     -1.76977708123402
  H          -1.74528317246967     -3.93676160970159      1.48380189758866
  H          -1.68921237077738     -4.26770352326817     -0.23100119191804
  H           2.50804173205801     -1.93507819195303      2.07390672914323
  H           3.04498748560453     -3.07990923642586      0.87300553455936
  H          -3.08238789269649     -2.75022285487655     -1.44697684026107
  H          -0.61583047803426     -2.92619548012985     -2.00562325609475
  H          -1.33905268152085     -1.40297136996878     -2.50257362709230
  H           0.40149699310556     -1.53095372985521     -2.31561938643714
  H           2.64250886032390      2.69547988332278     -0.54658322640976
  H           3.04804261907872      2.18781053834586      1.08111856611044
  H           5.04584204506984     -1.76194794104968      1.43427740864690
  H           3.24330570157687     -0.51686680626290     -2.25153869702658
  H           2.77710569083520      1.17816038078582     -2.44746794116317
  H           4.46119965753845      0.74570214184002     -2.21282307242453
  H           6.46123746040537     -0.11473795498046      0.82568788902963
  H           6.13722303888271      0.45035669200227     -0.80754119176236
  H          -3.12836459005677     -0.33277246792324     -1.61808715982896
  H          -4.72673477391798     -1.01745563455472     -1.52584503485232
  H           5.05758691730965      2.75242914066555     -1.16111103012923
  H           4.73958736351147      3.75954880970240      0.23918494905076
  H           5.51336827078083      1.97463783164081      1.73908361618964
  H          -4.43221648214546     -2.54241856176236      1.28349518683730
  H          -5.25984104258462     -2.97564362900493     -0.21315036637772
  H          -3.99280674304039     -4.01807302483195      0.42995842264191
  H          -4.96366295204284     -0.28539885074843      0.81571950664773
  H          -3.29079649119056      0.20759348601515      0.86496339305979
  H          -3.84334534540500      1.84112252754856     -1.03931787484911
  H          -4.79383331470577      3.54627202102340      0.43534747337644
  H          -5.95567768849901      0.74604214839353     -1.68349319080352
  H          -6.69330162680952      1.21418707496823     -0.17545971276389
  H          -2.90683340405182      3.69244989891463      1.95032114686719
  H          -2.55331703911851      1.97807695250372      1.78173149292328
  H          -2.35229854379180      3.05453370923248      0.39937043295938
  H          -5.23337944494717      3.11157360212716      2.81011452473643
  H          -6.34720463920476      2.16569479044870      1.82684895873000
  H          -4.95966310468902      1.38623031341928      2.58855981536719
  H          -6.54081848497195      3.62695285050917     -0.82209205915076
  H          -5.62624168632843      3.19585243764470     -2.26623367016346
  H          -7.31555649061616      2.71330799567364     -2.10901301886358
