27
Coordinates from ORCA-job 6923516 E -686.291295418146
  O          -4.05379615169071     -0.26065127443757     -0.32810863369183
  O          -2.24418627473756     -0.72287829087012     -1.55240209162404
  N           1.18218711021668     -2.02817102918578      0.29358239743032
  N          -3.12673756324899      2.03768517447268      0.51401686304688
  C          -1.30216574610205      0.54456463902069      1.20370159401177
  C          -0.12666087852776     -0.27923647828595      0.80948510441152
  C          -2.10355397922562      1.11445918160660      0.00841527977647
  C           1.13204053774382      0.21582487801201      0.32983376514564
  C           1.93033881144722     -0.90979570636521      0.01231520751617
  C          -0.05099771311525     -1.64223892942696      0.76505677706178
  C           1.66138425393529      1.49669316306623      0.13846593274531
  C           3.22549076867376     -0.78494971250116     -0.48159095044020
  C          -2.78895641083079     -0.04126770997953     -0.72952503494509
  C           2.94757865443392      1.62560341437333     -0.35414560293532
  C           3.72160520490991      0.49500537542821     -0.66198012815757
  H           1.47000868814722     -2.97672087038225      0.13784731985851
  H          -2.79462676136435      2.55790335054421      1.31645971394343
  H          -3.41454861154931      2.70371197546028     -0.19288199887004
  H          -4.26811634224321      0.48075907861416      0.27957817523945
  H          -1.98305435407475     -0.02949350898914      1.83687250449430
  H          -0.96566726604920      1.40058772751675      1.79920797095122
  H          -1.40582229482970      1.57554133966292     -0.69424007138052
  H          -0.79928842797790     -2.37629621919644      1.01423401983337
  H           1.07528746487494      2.37737162733854      0.37240930621183
  H           3.82433519152365     -1.65512674536455     -0.72011508287519
  H           3.36785069097566      2.61115664007973     -0.50765040075322
  H           4.72410739868504      0.62706590978829     -1.04775893600497
