21
Coordinates from ORCA-job 69313 E -499.346164282719
  O           0.61838573029172     -0.51254953598722     -0.13665049780561
  O           3.18523142770764     -1.22852477713557     -0.38874701556891
  C          -0.70536549496553     -0.18546758122986     -0.09164825111494
  C           1.56249443541926      0.52015459227591     -0.16121930057891
  C          -1.19629327129548      1.11790565602610     -0.06008069538931
  C          -1.59071368701528     -1.26458643260719     -0.07763167020611
  C           2.96916988100837     -0.05450413676119     -0.24003626478905
  C          -2.57298383102175      1.32946541629283     -0.01504211708305
  C          -2.95489638085413     -1.03759062358979     -0.03252103541327
  C          -3.45699663887066      0.26232277683445     -0.00096389940578
  C           4.07234722615608      0.97192258015537     -0.10386041102305
  H           1.41977356910006      1.17673276965387     -1.03168238807524
  H           1.49243533893854      1.15540476979507      0.73282130856193
  H          -0.52948438667275      1.96737634189732     -0.06924508420167
  H          -1.18342911979345     -2.26635995203051     -0.10355867893339
  H          -2.94790614073354      2.34491555740335      0.00922799828774
  H          -3.63340955257688     -1.88114318030208     -0.02235496832484
  H          -4.52414132606437      0.43603199307380      0.03411959025808
  H           4.23279428178747      1.17852116849501      0.95832938272655
  H           4.99457083110921      0.57579724168964     -0.52320334079653
  H           3.81361410834546      1.91705735605071     -0.58545966112464
