24
Coordinates from ORCA-job 6942100 E -629.961662014696
  O          -3.26589292456335      1.19165290821506     -0.33852573792017
  O          -1.59017548006162      1.38964728094601      1.12491584666522
  O           4.11431421929241      0.76228723006075      0.38470819937997
  N          -3.43252204444500     -1.41232021069078     -0.03999896476564
  C          -2.14305156388613     -0.82817523358235      0.34830574773195
  C          -1.09460699551204     -1.18174497487245     -0.73004385915815
  C           0.29605534129539     -0.68678431588118     -0.44372403139295
  C           0.75782809936473      0.51679790687139     -0.97536686360764
  C           1.15250788793173     -1.40883904774537      0.38302586334249
  C          -2.29362118933465      0.69513832134766      0.44710121426878
  C           2.02887813810917      0.99052981455562     -0.69432536724470
  C           2.42892112106113     -0.94836523983187      0.67633105024269
  C           2.86967566372581      0.25710846399556      0.13716556067443
  H           4.58720860237633      0.17630781535550      0.98616787250556
  H          -4.04745245423781     -1.52888861367549      0.75666500726756
  H          -3.74060790183720      0.41135188775511     -0.69776870782378
  H          -3.31467978382488     -2.31687579268996     -0.47913949137551
  H          -1.77883779329222     -1.17316646252220      1.31937138781368
  H          -1.08360172366722     -2.27311775545026     -0.81459768106390
  H          -1.44601432294540     -0.79274793354442     -1.68896814392916
  H           0.10721360329834      1.10311589260330     -1.61270702207209
  H           0.82271985602868     -2.35060605323889      0.80718075158896
  H           2.38077546480610      1.92716323162663     -1.10505396932664
  H           3.08228618031771     -1.52648111960737      1.32080433819905
