25
Coordinates from ORCA-job 69505 E -650.966790333461
  O           0.83248066952818     -1.73279016769113     -0.26105430966863
  O          -1.83209168908372     -1.36880570045126     -0.06356414882951
  O           2.53505747163012      0.56792097053365     -0.16320948155698
  O          -1.27580192434854      3.36111694337094      0.19131086971990
  C           0.32903966357582     -0.47099304831177     -0.05740081224247
  C          -1.06141513931144     -0.25041373769721      0.00423994643255
  C           1.18056067465255      0.63551107869260     -0.04044040208493
  C          -1.58252538997996      1.03272979194006      0.09572999709979
  C           0.65674148999244      1.92932037699607      0.03666885079345
  C          -0.71044697164963      2.11824601232667      0.10463323573283
  C           0.68428269961766     -2.65371642452353      0.81930730656086
  C          -3.24119070688620     -1.21500294563683     -0.07418208781392
  C           3.26016393613949     -0.47423831537860      0.48565124762689
  H          -0.58061711747486      4.02811885635012      0.17437185365716
  H          -2.64356390518521      1.21876309836474      0.14289934052469
  H           1.34884492330848      2.76179462886216      0.04715808388748
  H           1.14808880042983     -2.26152527939337      1.72994452666032
  H          -0.36599722329773     -2.87095568383319      1.01205148491759
  H           1.19766991433808     -3.56467882355104      0.51571467845950
  H          -3.59916606636507     -0.75124217369337      0.84948615167519
  H          -3.56782502223146     -0.61682839161324     -0.92922453159124
  H          -3.64992132756565     -2.21934425852631     -0.15707788471535
  H           2.87747985364888     -0.64254386825931      1.49572347946420
  H           3.21952690383037     -1.40343388024335     -0.07926193051438
  H           4.28828548268756     -0.12081405863349      0.54813353580500
