14
Coordinates from ORCA-job 69609 E -536.321189091563
  P           0.00000922220870      0.00000161533057     -0.14674928858498
  O           0.00008577717220     -0.00019138018561     -1.62993831897407
  C           1.60742920352498     -0.41984389671208      0.58820324696020
  C          -1.16743720079786     -1.18202911343313      0.58818065116295
  C          -0.44009380587483      1.60215812692798      0.58783936488684
  H           1.57170377673660     -0.41004706477718      1.67868155369087
  H           1.90414568360348     -1.41169956058891      0.24554669904317
  H           2.35133727131394      0.29983822218708      0.24483475109990
  H          -1.14121468050730     -1.15587872419720      1.67866531945926
  H          -2.17471578596097     -0.94305571778314      0.24537703318464
  H          -0.91612602807896     -2.18615606063657      0.24494111985003
  H          -0.43089684254080      1.56650178611391      1.67832610461758
  H           0.27064008688214      2.35493163786193      0.24517176656662
  H          -1.43523367768133      1.88658512989235      0.24426299703700
