19
Coordinates from ORCA-job 6971018 E -402.336800370947
  O           2.17283814559209     -0.69472173408192      0.40495189401081
  O           1.55288916738949      1.09026094829404     -0.78248938844716
  N          -0.18257304766408     -1.77899996197013      0.51158751905255
  C          -1.22695996689698      0.42369546007208     -0.25220426942490
  C          -0.10687317796178     -0.62389273156548     -0.39463042632987
  C          -2.58320978462238     -0.16630271165692     -0.63463534511036
  C          -1.25969513452723      1.04628009217224      1.14480463298788
  C           1.28318201945457      0.03325497847491     -0.27918549660517
  H          -0.61444355371336     -1.53368024959003      1.39448350931039
  H          -0.70672321078565     -2.54397168938247      0.11054806063320
  H           1.67697167945496     -1.49419280121562      0.69682564225887
  H          -0.97516556290304      1.21428650013747     -0.96189980452639
  H          -0.14053811666615     -1.01361175118591     -1.41652199696730
  H          -2.87779155273925     -0.96837796067001      0.04769952833460
  H          -3.36126423447324      0.59777933212448     -0.59355847613460
  H          -2.56913299248261     -0.57449003965074     -1.64806132674958
  H          -1.52941217596359      0.31543370988620      1.91364909865106
  H          -0.29732670408541      1.48622984773104      1.40998329337037
  H          -2.00963379640634      1.83743676207676      1.18811035168561
