20
Coordinates from ORCA-job 6971009 E -548.727894076172
  O          -3.20873817485077      0.68628324443657     -0.95803345467757
  O          -1.10712609967954      1.10477283178530     -1.53981607436597
  N          -2.67794725745942     -1.37803452396719      0.49711903387522
  N           1.44977354395191      0.48560051520261     -0.54411607972829
  N           3.13942617885149     -0.14334341797039      0.73705227249087
  C          -1.49598868926186     -0.56177815188970      0.18857269806449
  C          -0.24308615637491     -1.36834979379952     -0.22060392732465
  C           1.06568570642445     -0.70236545289582      0.03367570225339
  C          -1.89636714935535      0.48934009819179     -0.86590060346704
  C           2.12941692842386     -1.07130243362877      0.81989504831349
  C           2.69627505558630      0.77910716221488     -0.08640870109558
  H          -2.66256672359366     -1.71168411089996      1.45184029337089
  H          -3.61384718530035      0.02571006355185     -0.34794504605927
  H          -2.73638459775523     -2.18665765512493     -0.11286144810619
  H           0.83922965565939      1.03167715975132     -1.13866072359942
  H          -1.25629300916854      0.01291105590520      1.08798831087774
  H          -0.24758882322528     -2.29057296360655      0.36293613611050
  H          -0.33885964812012     -1.65683832497424     -1.27328980164833
  H           2.22209162063408     -1.95611249530509      1.42987419908756
  H           3.22675482461357      1.67010819302265     -0.38176083437186
