43
Coordinates from ORCA-job 69825 E -588.274569573438
  C          -1.04867314901807     -0.06687574771019      0.28733530397525
  C           0.18066937894008      0.65618140017632     -0.25708571768305
  C          -2.36465086145599      0.45226578717816     -0.28640228858641
  C           1.49657119474060      0.13629962964610      0.31601044997114
  C          -3.59420125080181     -0.27028235581783      0.25823907204941
  C           2.72554485032568      0.86010709755652     -0.22832797072842
  C          -4.91006584659110      0.24835019961423     -0.31633243180348
  C           4.04008133149010      0.33442676627370      0.34224509554656
  C          -6.13983111057573     -0.47327271602985      0.22880165119951
  C           5.26322069057794      1.06580058418527     -0.20125615827685
  C          -7.45657166880676      0.04404466767399     -0.34630252762073
  C           6.59517053887091      0.53636990549542      0.35759162523021
  C          -8.67935518526454     -0.68379783693579      0.20612762266116
  C           6.87023800573002     -0.84611955692822     -0.01502038975178
  C           7.07845123104935     -1.98411464591320     -0.33576800546169
  H          -0.96025371123438     -1.13880908872453      0.07667564167462
  H          -1.06866906184939      0.02602248167503      1.37925402795813
  H           0.20039557808715      0.56356194990946     -1.34901938374963
  H           0.09246451447640      1.72813943188309     -0.04605226595794
  H          -2.45275955495488      1.52436369514185     -0.07610994071640
  H          -2.34466727491637      0.35903386699277     -1.37829224695900
  H           1.47693645800550      0.22819547568668      1.40798449382726
  H           1.58559294341080     -0.93516558810313      0.10417263792276
  H          -3.50579791631477     -1.34243767313139      0.04856091745118
  H          -3.61446164329104     -0.17652004875079      1.35007402381187
  H           2.74439594769870      0.76865912787505     -1.32028080911780
  H           2.63759646959682      1.93182179731283     -0.01541438176004
  H          -4.99799085496554      1.32071266612632     -0.10726176433158
  H          -4.88982114731553      0.15387746597701     -1.40813071480647
  H           4.02330265834085      0.42266695974177      1.43483397224594
  H           4.13218650866817     -0.73338082641536      0.12302484601195
  H          -6.05216941299037     -1.54599373726244      0.02067669543436
  H          -6.16109490633269     -0.37829065811500      1.32070135541855
  H           5.28261207343874      0.99132405975425     -1.29221655689371
  H           5.19295078469610      2.13044932682756      0.04135604255319
  H          -7.54305962366906      1.11582990536298     -0.13819851627258
  H          -7.43457712631744     -0.05210537497095     -1.43705876196492
  H           7.41671825313833      1.16700874771164      0.00537067778533
  H           6.58992485452036      0.61681812960109      1.44971755931924
  H          -8.74331889109919     -0.57583528204447      1.29191546333248
  H          -9.60522884631077     -0.29444272844061     -0.22205511983559
  H          -8.63352510590132     -1.75301277882924     -0.01608197828863
  H           7.26755788417413     -2.99069948125608     -0.61713124481341
