23
Coordinates from ORCA-job 6985 E -463.451809507533
  O           2.83250437728651     -0.74634239817666     -0.24289134258648
  C          -0.04633731206739     -1.05160731174772     -0.13322023361885
  C           0.64830521493713      0.17978750683362     -0.13721381909349
  C          -2.17276115006531      0.16108014988964     -0.01498848415170
  C          -1.43795721735455     -1.01984533581008     -0.07320797165477
  C          -0.09314839937320      1.36678309986676     -0.08288393084231
  C          -1.47432912080367      1.36606983162112     -0.02356454301382
  C           0.62848395761163     -2.39328691631734     -0.19347461439255
  C           2.13593403969228      0.25054568182790     -0.20069313501704
  C          -3.67214702597353      0.13434841512547      0.08068036903678
  C           2.80083826666644      1.61664471017540     -0.21184823611016
  H          -1.97120149544061     -1.96386556016522     -0.07426896911364
  H           0.42064050250868      2.31684042216468     -0.08975746179306
  H          -2.01348303183568      2.30492043694368      0.01385721348509
  H           1.30856130729832     -2.53653108733087      0.64613223886039
  H          -0.12092489691200     -3.18543384910768     -0.18394107679171
  H           1.24100888526964     -2.49321306893105     -1.08944528995947
  H          -3.99276571504616      0.19074827784120      1.12509949352717
  H          -4.11836489378259      0.98133516044310     -0.44242762697052
  H          -4.08175977568604     -0.78485459042952     -0.33889419426971
  H           2.55653576135135      2.18322362685461      0.68908336036010
  H           3.87641221626635      1.46771126128882     -0.26252330234981
  H           2.47654150545244      2.20810153714011     -1.07051844354045
