19
Coordinates from ORCA-job 69867 E -552.333916018439
  O          -3.48907391095297     -0.10497288533598      0.13070320289158
  O          -2.28179986922406      1.69540369054357     -0.33885012175196
  N           0.29025269848069     -2.08452750853256     -0.04538969041510
  C           0.26094662951611      0.16481889439510     -0.01664769186077
  C           1.10325495294592     -0.96744277928992     -0.00578862148015
  C          -1.09378634882270     -0.32289297834133     -0.05529404107576
  C          -1.01746934598942     -1.69732856855485     -0.07899803432627
  C           0.83183292655969      1.44127916377552      0.01406303334214
  C           2.49066241835364     -0.86849769989844      0.03828319183664
  C           2.21001510805436      1.54485153518390      0.05642186168212
  C           3.03064950008828      0.40488922316295      0.06875667445380
  C          -2.29462681192303      0.51621594958398     -0.10323628811933
  H          -3.34453715801617     -0.99800616039706      0.46592776801791
  H           0.61072955674061     -3.03579726577168     -0.08322666501103
  H          -1.79773994146544     -2.43794270305209     -0.15394173333179
  H           0.19704732809279      2.31498554941687     -0.00391017040420
  H           3.12203125559560     -1.74790949230354      0.04738332708606
  H           2.67036467662142      2.52404513743987      0.07791201788862
  H           4.10569743595566      0.52477173363671      0.10167833479648
