26
Coordinates from ORCA-job 6991966 E -1442.577506974124
  S          -0.21643549531219     -0.70515646960955      0.66833040177923
  S           0.74482387981935     -0.56820056911588     -1.13260219244131
  O          -4.72074469799533     -0.31890797318121     -0.85540771637189
  O           2.95867071624230     -1.45460936470413      1.34182582169116
  O          -2.64334339053147     -0.67619658536760     -1.58281119199500
  O           4.61119382078518     -0.73738338093281      0.04889868220065
  N          -3.91568162698585      1.01154271596490      1.26500618242471
  N           3.68553036488929      1.94404673501445      0.31500915543077
  C          -2.92182299596997      0.09605443664374      0.69516531297613
  C           2.78963216219019      0.79778559778365      0.37326714372770
  C          -1.48385022254453      0.62816531392098      0.68841725771851
  C           1.95604732483428      0.78668468086400     -0.91144103661398
  C          -3.38773980660494     -0.33501163247199     -0.70883561826080
  C           3.54337863657291     -0.53006309797460      0.55511574916952
  H          -5.08224581798576      0.09367957110715     -0.04385751163401
  H           2.06557656901285     -1.16613614899446      1.59237087040614
  H          -3.87114254115881      1.03758162851152      2.27541413199292
  H          -3.79545109657684      1.95776981476673      0.91992393219820
  H           4.09481423210580      2.11722847744607      1.22620483561562
  H           4.45720139825420      1.72660616553861     -0.30895384360064
  H          -2.95448265660278     -0.81620748613652      1.29918413108691
  H           2.11152316601009      0.94296260702447      1.21679581736676
  H          -1.31363649392305      1.20479214696034      1.59855133192024
  H          -1.30096958409820      1.26799420879544     -0.17331331108470
  H           2.61655412874765      0.66963712547922     -1.77501696951487
  H           1.45570502682561      1.74989248266746     -0.99809636618797
