33
Coordinates from ORCA-job 6994762 E -469.459992828426
  O           2.17853798427345     -1.25952957051643      1.28523634863249
  C           2.11740752629872     -0.41324637136174      0.12094405204677
  C           0.76119444380461     -0.59365652638770     -0.58278651321271
  C          -0.46482804366830     -0.15011044517066      0.21157830741662
  C          -1.76998388196685     -0.43777951301159     -0.52857520249819
  C          -3.04766843872748     -0.09807812771415      0.24871405130090
  C           2.37585842598443      1.03678023579205      0.56509702002105
  C           3.23508645750872     -0.92467684225914     -0.78017728132828
  C          -3.16104958056168      1.39622233751359      0.55755165068852
  C          -4.28141009077029     -0.58232589923900     -0.51468640731134
  C           2.31595556467773      2.09402797745472     -0.53504516007689
  H           1.55919944212277     -0.92042972777372      1.94080425506151
  H           0.78217521535848     -0.05830736844757     -1.53655220768453
  H           0.66563149571871     -1.65558185627133     -0.82633688395074
  H          -0.49102470668901     -0.66903874839071      1.17690018172839
  H          -0.39698106518192      0.91711687206039      0.43349080308987
  H          -1.77634058914423      0.11274189955413     -1.47744096172762
  H          -1.79453955392118     -1.49982402745653     -0.79457420013549
  H          -3.00821477199686     -0.63863994523009      1.20280518698360
  H           1.65025713361552      1.29282000412039      1.34423972574907
  H           3.35681343093623      1.05566842129834      1.04655657378007
  H           4.20012312235498     -0.81806814867646     -0.28294093261999
  H           3.07839172405625     -1.98148710928376     -0.99943357305413
  H           3.26321372229500     -0.37895115734197     -1.72341628521554
  H          -2.33512105936359      1.75220313611026      1.17470840788607
  H          -3.16390924934781      1.98052058255968     -0.36761556125255
  H          -4.08887375800910      1.61481946116739      1.09046796973012
  H          -5.19782993610797     -0.38328460029690      0.04507169033155
  H          -4.36377091084396     -0.07214504110130     -1.47886028676279
  H          -4.23177073523081     -1.65585241205679     -0.70965688193635
  H           2.54273634721656      3.08109939520857     -0.12823074282260
  H           3.03898472577847      1.89306043625340     -1.32725784562878
  H           1.32659360953039      2.14777167889463     -0.99272429722807
