30
Coordinates from ORCA-job 7013 E -672.180915291180
  N           0.77062634684612     -0.63482505716498     -0.30535767812644
  C          -1.61282350644450     -0.27970039399661     -0.03491388197893
  C          -0.29686665891843      0.25878132386590     -0.20361577944798
  C          -2.72481149142645      0.61423907420988     -0.00941453238998
  C          -0.12907756770156      1.62485169556327     -0.29249792997872
  C          -1.85698334691264     -1.66486664364993      0.11520729194055
  C          -2.50582933503227      2.00824179325182     -0.10011573626555
  C          -4.02754438452853      0.07778618905480      0.12184385837966
  C           2.12534058429310     -0.37332725557105     -0.10654975937545
  C          -1.23213659897701      2.49341838816457     -0.22725471942032
  C          -3.13305489094760     -2.15124583367957      0.24607302522658
  C          -4.23261224462644     -1.27159478766024      0.23838624111799
  C           3.07064280748146     -1.08697234310729     -0.85140750343553
  C           2.57698375309015      0.53005319567316      0.86191829761274
  C           4.42789890918325     -0.90319438173025     -0.63435950902592
  C           3.93666373018249      0.71643973177760      1.06090753834949
  C           4.87337613408363      0.00615039571751      0.31762606349885
  H           0.57453896108731     -1.48135717219093     -0.81196423821680
  H           0.85953932852796      2.03290385290342     -0.44298898919325
  H          -1.02508887970642     -2.35436184139776      0.16308554184741
  H          -3.35589315892669      2.67774670611869     -0.06783007487316
  H          -4.86717710064648      0.76232351315381      0.13201713286741
  H          -1.06148909595883      3.55989619535858     -0.30300032348291
  H          -3.29544460413078     -3.21439540527415      0.36838317993810
  H          -5.23655487929300     -1.66385499809483      0.33840451741104
  H           2.73206728268141     -1.78644426694982     -1.60729600149671
  H           1.86234059026454      1.06785797800495      1.46806882733304
  H           5.14046514277906     -1.46776599376298     -1.22239711578041
  H           4.26627944239172      1.41813468401441      1.81692386200294
  H           5.93208173128545      0.15639965739802      0.48077339496226
