38
Coordinates from ORCA-job 70214 E -771.373638014523
  O           2.99723915834745     -0.17482794496391      0.19760601707878
  O          -2.99711046378642      0.17766318728183      0.19745480804276
  O           1.81649070604391      1.73807894165339      0.11414861910979
  O          -1.81632060723447     -1.73597311053888      0.13365863359447
  C           5.39102108403259     -0.39328987362267      0.14841862022215
  C          -5.39098020077412      0.39542358156630      0.14922094261386
  C           4.22639331784686      0.58137165981143      0.17475695079466
  C          -4.22623295125698     -0.57882092527318      0.18444487874742
  C           5.37092964522534     -1.26122933130040     -1.10951318581040
  C           6.70301900889004      0.38347542766687      0.27109845564819
  C          -6.70272781381203     -0.38006965837214      0.28226178827749
  C          -5.37282506413658      1.24964633484525     -1.11810307566255
  C           0.65573812363162     -0.38157986079285      0.18286849036218
  C          -0.65563154581777      0.38442430859619      0.17545538424324
  C           1.85527357193408      0.53353286680409      0.16075913089873
  C          -1.85513062297316     -0.53097845827126      0.16677305226552
  H           5.29111805938152     -1.04556759742598      1.02278072510684
  H          -5.28987086048456      1.05717733799628      1.01629438804545
  H           4.22750994036260      1.22757653285761     -0.70633953750437
  H           4.25827363631165      1.22126680968165      1.05849534838434
  H          -4.22851960218773     -1.23447083087275     -0.68964753186696
  H          -4.25684152849904     -1.20916697962135      1.07505934186151
  H           6.19589599125578     -1.97607325240504     -1.10006795868725
  H           4.43832072054393     -1.81943242863164     -1.19080270347443
  H           5.47551443816215     -0.64239037494162     -2.00555465449792
  H           6.73597191775161      0.97652915369356      1.18756493417188
  H           7.55447397604702     -0.29879665683227      0.28174862317136
  H           6.83476539243184      1.06392866916341     -0.57469173373646
  H          -6.73430110198932     -0.96308076490995      1.20519792707703
  H          -7.55423978758435      0.30219872196176      0.28667536571121
  H          -6.83560206829829     -1.06973942062079     -0.55585241394432
  H          -6.19770064398871      1.96464878222371     -1.11512474376986
  H          -4.44029097729829      1.80683073179370     -1.20692751478564
  H          -5.47884401336369      0.62110282381936     -2.00719560138288
  H           0.72981622532916     -1.02847687865649      1.05926131823849
  H           0.72057277772129     -1.05530626600370     -0.67404516710398
  H          -0.73092452288165      1.04661986319616      1.04015700264718
  H          -0.71928731488331      1.04298087944432     -0.69334292408751
