29
Coordinates from ORCA-job 70337 E -542.053592886544
  O          -0.46267110754932     -0.51265861533766     -1.42651981984605
  C          -2.30829400788027      1.10541121365907     -0.08919907931655
  C          -3.02067252133240     -0.11332638461612      0.49468307771768
  C          -0.82096889937390      1.15481466256915      0.24304248654849
  C          -4.50566935973940     -0.16268813258454      0.14420864753185
  C           0.01691405474193      0.14510638191946     -0.52522560281363
  C          -5.21836807398217     -1.37555803867362      0.73646476385052
  C           1.46189382381116     -0.00721815627819     -0.16279622604078
  C           2.07925404070879      0.76834723481926      0.82097170659477
  C           2.21887087843843     -0.96233502729896     -0.84677607051670
  C           3.42547765826034      0.59334527188666      1.11375791043063
  C           3.56065324002900     -1.14008379622052     -0.55237920935599
  C           4.16747762416292     -0.36138451995464      0.42920859499120
  H          -2.43134573653623      1.11172050791691     -1.17443643461877
  H          -2.78176197857453      2.01562762291018      0.29104825019590
  H          -2.53512588784312     -1.02311484111078      0.13241302200761
  H          -2.90724796028777     -0.10980173921350      1.58572566286795
  H          -0.40864240461936      2.14561862792654      0.02014626931181
  H          -0.66267541954204      1.00546594661357      1.31561810724431
  H          -4.99145654443658      0.75511443379873      0.49334550310557
  H          -4.61408482801176     -0.17000299500034     -0.94515349450044
  H          -5.15102069541313     -1.37738312450358      1.82753318912751
  H          -6.27675280810864     -1.38873614686215      0.46848298442486
  H          -4.77163490964725     -2.30584385753875      0.37699813457579
  H           1.51564748706842      1.51537778921417      1.36190294112349
  H           1.72941772609360     -1.55446252783053     -1.60777054423584
  H           3.89472020752839      1.20140452914389      1.87642168550611
  H           4.13735821601251     -1.88437119105156     -1.08648213230184
  H           5.21639118602238     -0.49912512830217      0.65937167639055
