16
Coordinates from ORCA-job 7054 E -513.016081284567
  O          -1.79573083249980     -1.91465955098942     -0.00012258325830
  O          -3.09102526538051      0.78369282225334     -0.00028225492052
  N          -0.87585915242415      1.45481298909404     -0.00006682637449
  C           0.22369896973879     -0.56556952407005      0.00005683157943
  C           0.37412112518449      0.82912191366586      0.00004732387002
  C          -1.21287064745586     -0.86353786015802     -0.00004336404515
  C          -1.91414566378010      0.54468208749579     -0.00013143096157
  C           1.32988384756768     -1.39990537161111      0.00014984958123
  C           1.62808902534975      1.41107002464811      0.00012961428015
  C           2.59711254319177     -0.82727030177791      0.00025036101207
  C           2.73400171978370      0.56026145005477      0.00023955709829
  H          -1.02244268346944      2.45096889243157     -0.00012923867297
  H           1.19369446232556     -2.47357727143663      0.00015624137692
  H           1.75342780788054      2.48588087087947      0.00011385362130
  H           3.47826543998778     -1.45398476883860      0.00033741458864
  H           3.72577730399980      0.99421559835879      0.00031065122496
