29
Coordinates from ORCA-job 7059437 E -910.985309241485
  O           1.33578083782278      0.61922694937229      0.64015189138025
  O           0.92652258908333     -2.49249111146815     -1.09725039657110
  O           3.28891644068591     -1.62331082479107      0.04698713286829
  O           3.35894020394091      2.58994593748510      0.96008894221488
  O          -1.58158521674438     -1.49098244960781      1.81155477001308
  O          -4.70317562051471      1.11744464498333     -0.22200536524127
  N          -0.86686727940135     -0.07241377145031      0.14642595087225
  N          -3.10982692039257     -0.17963198111158      0.75244463947835
  C           1.14364139523782     -1.11769616749344     -0.96777372709491
  C           2.61580107040453     -0.70942815733870     -0.81547997446402
  C           0.51307497296754     -0.49557407686011      0.29929146281842
  C           2.46845522095050      0.69879598607203     -0.25831082415414
  C           3.63895122288771      1.27819883557567      0.50752531145418
  C          -1.83536553592741     -0.65092882569436      0.97590073169544
  C          -1.19168464499445      0.92170424452600     -0.74511539653284
  C          -2.44250572466602      1.37272157636284     -0.92679464402362
  C          -3.53213362076825      0.80839590448586     -0.15128822164999
  H           1.60701085311264     -2.94110057816155     -0.57421382657218
  H           3.07719919553271     -1.41959156914067      0.96637001257217
  H           2.57429647644008      2.54760536129083      1.52031247815971
  H          -3.82786333281246     -0.59325711665826      1.33136970532661
  H           0.72540855993308     -0.64214018596434     -1.85834200929336
  H           3.15465877595353     -0.73419199166524     -1.76131563781592
  H           0.50002055123858     -1.21951575103220      1.11217796222362
  H           2.22382662992331      1.38454957758336     -1.07947710896910
  H           4.50504214798494      1.34860799418244     -0.15235872940228
  H           3.90544028244558      0.62251986050564      1.34435141685313
  H          -0.35517337476250      1.33736428634508     -1.28773384310600
  H          -2.66658015556140      2.15669639966728     -1.63173170303963
