58
Coordinates from ORCA-job 7060889 E -934.072139972778
  O          -0.60252550113594      1.95059309841233      1.65371320127855
  O           4.36202123127734     -1.75821012794748     -1.13760564663670
  C          -0.91176172521762     -0.42255368446839     -0.33770650516930
  C          -2.31653811986163      0.18379805525326     -0.02634518920518
  C           0.17355150183349      0.74173858399794     -0.35887194050555
  C          -3.51052017804705     -0.80835716110878      0.07403589377152
  C          -0.31085092720790      2.08752931469943      0.24322109630321
  C          -0.64519004199037     -1.47622891089368      0.75641529250115
  C          -2.54370742902725      1.41595777631507     -0.89545537952945
  C          -1.61630384715569      2.54728106395668     -0.43461241988674
  C          -3.12123521123778     -1.90675796263626      1.08468604335042
  C          -1.75131939540704     -2.53088322438418      0.84065273257730
  C          -0.82661341881922     -1.09387837013214     -1.72404208777756
  C           1.54893810920432      0.33805183760105      0.20669801232285
  C          -4.71903662957581     -0.06109993131553      0.66778738048143
  C          -3.97052762524775     -1.42162887611284     -1.25769146565006
  C           0.71559128603860      3.21531187169722      0.08044692103628
  C           2.36658398558470     -0.62303209875038     -0.65511041944581
  C           3.81808479121673     -0.81539553233794     -0.18778057254002
  C           3.88520613209131     -1.41959479890169      1.21208764421560
  C           4.58927749926317      0.47354034718345     -0.33400727699773
  C           5.21305417623477      1.15232593943186      0.62020017414972
  H           0.22134871620074      1.74515811120376      2.10930227215777
  H           5.30211433154991     -1.86167909997036     -0.94791217664487
  H          -2.22369422253014      0.55614277484914      0.99561683678720
  H           0.33460952356470      0.97838036038474     -1.41645737992975
  H           0.30875597930706     -1.97882128621228      0.59203710298769
  H          -0.57609597285001     -0.96740942093567      1.72244291639500
  H          -2.35992190073909      1.18067130378169     -1.94612025222423
  H          -3.57633030561727      1.75860499901960     -0.84256450592479
  H          -2.12722136395438      3.18423631176191      0.29043625281535
  H          -1.35734863192600      3.18342865867622     -1.28362995628466
  H          -3.12041192561820     -1.45732823019108      2.08403041003166
  H          -3.89506057486091     -2.68073119170029      1.09472938834174
  H          -1.76674297309588     -3.13410651464563     -0.07013240588954
  H          -1.52118405808515     -3.22665681735914      1.65233046158567
  H          -1.35572376833227     -2.03995643267271     -1.77173692546994
  H          -1.23277340926790     -0.45037852521581     -2.50523210747637
  H           0.21086203908045     -1.29676526214820     -1.98335336728903
  H           2.15197541673153      1.23733127282664      0.32478929797182
  H           1.42872235232366     -0.07837299209975      1.20830394248782
  H          -4.43588565562594      0.50112064020058      1.56043784789745
  H          -5.16432676641109      0.63466438762795     -0.04455486452823
  H          -5.49538118794256     -0.77582808549277      0.95146783183669
  H          -4.94520712767140     -1.89754526419601     -1.12437811739039
  H          -4.08237146794234     -0.65683297906874     -2.02873446787734
  H          -3.29193750929426     -2.18005961292065     -1.63862908328066
  H           1.57635682837662      3.09048837728730      0.73821633742265
  H           1.08002654357570      3.27588068015350     -0.94712911417097
  H           0.24340871701947      4.16515924219199      0.33548182701135
  H           1.91833670882246     -1.61556218268486     -0.69704672500555
  H           2.40206113495395     -0.25395344769918     -1.68376078408214
  H           3.46835837592838     -0.75257314870062      1.96665847984442
  H           3.32234885781382     -2.35300972295245      1.22730763181597
  H           4.91832195854930     -1.63783047411304      1.48984029920456
  H           4.61957961528424      0.83954342028461     -1.35716151373256
  H           5.75092885638581      2.06513808725808      0.39711347856980
  H           5.21279820348359      0.83195785391249      1.65452464339250
