29
Coordinates from ORCA-job 70797 E -484.071515974142
  N          -2.04046526561041     -1.09061108140048      0.08590101915578
  C           2.26562195104425     -0.01967701467575     -0.63776969944365
  C           0.86753330532467      0.05528254453884     -0.03147116661692
  C           3.37850415761343      0.00854109745647      0.40673719248531
  C          -0.24518550921715      0.02775740620478     -1.08663435853653
  C           4.78033288864303     -0.07177225731934     -0.19385420607160
  C          -1.61294021681870      0.05183312317624     -0.46419340759905
  C           5.88539516912124     -0.04285897795991      0.85873729384295
  C          -2.38020801224503      1.21663296510284     -0.42875753910845
  C          -3.61999320892465      1.19536635529940      0.19219330075159
  C          -3.23178185938837     -1.10209630342897      0.67927001725528
  C          -4.06119614352012      0.00946368841711      0.76186671219864
  H           2.35109774793726     -0.93533085637276     -1.23370349263733
  H           2.40513164983879      0.81247889344939     -1.33763620973533
  H           0.71411291333331     -0.78173700547546      0.65515727784713
  H           0.77413584769686      0.96874041756013      0.56587261011705
  H           3.29324224813240      0.92462167064061      1.00270068149818
  H           3.23756139265245     -0.82234049176711      1.10736621243755
  H          -0.13013491614562      0.87748972103492     -1.76468131017574
  H          -0.15116532985922     -0.88455496408569     -1.68072546091232
  H           4.86434102199951     -0.98770251710777     -0.78831231098718
  H           4.91961257619720      0.75856173260728     -0.89438031245750
  H           5.78847153835033     -0.88152835172738      1.55285993928740
  H           6.87547379771438     -0.10145354591792      0.40215184871214
  H           5.84376453009987      0.87762529219061      1.44669864942468
  H          -2.00499772039856      2.12360426700093     -0.88536700535378
  H          -4.23189209517993      2.08808103498637      0.22856461018651
  H          -3.54164736026173     -2.04939885025334      1.10926278571958
  H          -5.02161209812951     -0.05793499217407      1.25513632871560
