22
Coordinates from ORCA-job 70813 E -1258.246783406243
  S           0.10429599594608     -0.89624865512216      0.18268109835065
  S          -3.74758549270844      1.16161798508079      0.01868403949833
  C          -1.12948716531479      0.27238104091560     -0.15380731627684
  C          -2.52550013063613     -0.07056022615724     -0.04359474120406
  C          -0.56638873679937      1.47877129171932     -0.50874673701836
  C          -3.10340263044020     -1.31596371074649      0.03139098994686
  C           0.83959157283586      1.46351535108057     -0.51898032282169
  C           1.37526302824826      0.24108313748504     -0.17227215463118
  C          -4.51478514136194     -1.27481053551927      0.13000739968196
  C          -5.00618017702026     -0.00141317344298      0.12961304147511
  C           2.71953711135306     -0.13251459380546     -0.08643040226981
  C           3.88281978300269     -0.46119163564412     -0.01015087700501
  C           5.22978255487711     -0.87157977150213      0.08746338792350
  C           6.28832704625370     -0.08794578388642     -0.14874687878874
  H          -1.15761615114034      2.34475821790440     -0.77012685694975
  H          -2.52933476057633     -2.23104417314756     -0.00102805449347
  H           1.45727222887961      2.31066861723486     -0.77723289213145
  H          -5.13971333941130     -2.15372805148024      0.19280962317631
  H          -6.03346293919278      0.31824032746411      0.18887505724967
  H           5.38797571596233     -1.90639299427184      0.37819433284817
  H           7.29404177472035     -0.47353031014346     -0.05322024977133
  H           6.17275885252284      0.94767464598468     -0.44024048678887
