37
Coordinates from ORCA-job 70825 E -621.867984575327
  O          -0.07869548539775     -3.49085876717588      0.07962544932886
  C          -2.51296433184352      0.77427416762163     -0.00711847760677
  C           2.53849367841265      0.73900476832520     -0.00817641344311
  C          -1.21587470282372     -0.04017029027510      0.00915565694537
  C           1.22846448512237     -0.05481458695616      0.00867827256323
  C           0.01190294301071      0.62364418545093     -0.00486253359244
  C          -2.55576887054557      1.63745249559889     -1.28190445637625
  C          -2.55514693047495      1.68837658427287      1.23171281028059
  C          -3.76160395805640     -0.11499391623770      0.01112596240427
  C           2.59543463723492      1.65330546169311      1.22982602336577
  C           2.59516997706353      1.60015173204205     -1.28373408860360
  C           3.77401388410644     -0.16866032012857      0.01082213670385
  C          -1.21479524033862     -1.43062210826001      0.03768655723508
  C           1.20279032129422     -1.44768701835215      0.03724566358891
  C          -0.01113508878937     -2.12356266828098      0.05152429963983
  H           0.81388112119018     -3.85402631128226      0.08674245462626
  H           0.01927157705137      1.70387176569610     -0.02710962830161
  H          -3.47687648297713      2.22432965227042     -1.31070784565007
  H          -1.71494524129993      2.32990559129250     -1.32792906657432
  H          -2.52195293725069      1.00983803712769     -2.17438653668649
  H          -2.52115627805641      1.09736511346931      2.14883833482740
  H          -1.71407133020936      2.38181076642379      1.24934674754474
  H          -3.47608055948282      2.27620826115565      1.23710325981946
  H          -3.80288120498438     -0.73474700375483      0.90850945002237
  H          -4.65576797671954      0.51079699457295     -0.00140890255392
  H          -3.80302946780332     -0.77060257287649     -0.86039611738512
  H           2.55219587354769      1.06395813589171      2.14765058675576
  H           3.52507807311621      2.22730862000014      1.23456655772662
  H           1.76474165911685      2.35891827950061      1.24669097724790
  H           3.52453494568561      2.17391328060079     -1.31261595657506
  H           2.55239919141552      0.97252763737974     -2.17584390473416
  H           1.76412549619682      2.30402158403735     -1.33051151385796
  H           3.80715773904890     -0.78755320945396      0.90946812262478
  H           3.80709277854180     -0.82440861835074     -0.86130725953216
  H           4.67743777170415      0.44349197613370     -0.00205630274708
  H          -2.12869400408819     -2.00436307879936      0.04972228058954
  H           2.12055593828176     -2.02081762037296      0.04873940037955
