34
Coordinates from ORCA-job 7094 E -470.441212716034
  C           0.73500845929793     -0.00109879906448      0.23728075937081
  C          -0.73504033096809     -0.00112913981891     -0.23722730529602
  C           1.49854958121170     -1.25278547332364     -0.22431605615712
  C           1.49723472971929      1.25549854935266     -0.21262392203863
  C          -1.49856043631593     -1.25282350871569      0.22433419905003
  C          -1.49729068300434      1.25545248978062      0.21271054748145
  C           2.96275551657637     -1.25480187514802      0.21887586324650
  C           2.96154356297917      1.25412384231346      0.23047816065880
  C          -2.96276807537572     -1.25485009554233     -0.21886738898536
  C          -2.96158309389977      1.25407959550733     -0.23044148064991
  C           3.69594119192279      0.00219481229163     -0.24323420143075
  C          -3.69598560813138      0.00213471986117      0.24322265970565
  H           0.72284312919799     -0.00590845470283      1.33688336106957
  H          -0.72287487155173     -0.00580542807910     -1.33683042701216
  H           1.01434265539562     -2.15483971751327      0.15036954679274
  H           1.45256250448741     -1.30551093199373     -1.31951379968601
  H           1.45084261181418      1.31943852551925     -1.30721677378836
  H           1.01267552375579      2.15334702730905      0.17160654340137
  H          -1.01435469677785     -2.15487219384845     -0.15037126348694
  H          -1.45255886276076     -1.30556310842428      1.31952916432648
  H          -1.45093944279079      1.31935696784237      1.30730776461066
  H          -1.01271511765533      2.15330855563264     -0.17147728497232
  H           3.00550245790750     -1.31281980830984      1.31273895096046
  H           3.46304363476301     -2.15037759469997     -0.15931985901208
  H           3.46116588200741      2.15378214958656     -0.13878507469812
  H           3.00396229815580      1.30169317760866      1.32488146337612
  H          -3.00549463387898     -1.31286986848858     -1.31273188381544
  H          -3.46304811780121     -2.15043361896947      0.15932334189648
  H          -3.46122460434610      2.15372537969016      0.13882322879035
  H          -3.00396888289008      1.30166973749606     -1.32484662611135
  H           4.72628443163193      0.00102752644030      0.12229677930536
  H           3.75059141781155      0.00724863554250     -1.33811974398647
  H          -4.72630970283535      0.00095745086518     -0.12236045706060
  H          -3.75068942765202      0.00717547400296      1.33810521414479
