34
Coordinates from ORCA-job 712316 E -1105.305716054050
  O          -0.30192756085291      0.81721694549184     -0.13352881679443
  O           0.72641943765729     -2.68233504500866     -0.28032459607771
  O          -1.88463311134304     -2.90687211467725     -0.25640032986697
  O          -4.33733704437611     -1.75180658086712      0.10399345344477
  O          -4.37227506126556      3.02624983449388      0.33063886597727
  O           4.18300418007977      1.52993274492763      1.94100168222103
  O           5.95903205151082      0.72977555328462      0.09656883249962
  C           0.45147165260940     -0.30946464201957     -0.62304773504642
  C           0.01457932448045     -1.55678903030185      0.14502439405847
  C           1.91160208143005     -0.00019227241350     -0.47437008531727
  C          -1.48487230440666     -1.77203300438694     -0.06302231424558
  C          -2.29261901286137     -0.56083542102407     -0.01215724455650
  C          -1.64195221965967      0.69513111150792     -0.01830073784854
  C          -3.70140272333816     -0.56139106297601      0.09430177112508
  C           2.38240524129633      0.65066866174079      0.66472090468298
  C           2.80956978485944     -0.41876492310869     -1.44687883921598
  C          -2.34160364480083      1.88582733725374      0.09866365367784
  C          -4.40788796822278      0.62654240012254      0.21396707696122
  C          -3.72176347064935      1.84142424913859      0.22003984996309
  C           3.73630805804324      0.88405169100664      0.82882086784507
  C           4.17244538383463     -0.19487417008759     -1.28369732758070
  C           4.63528562782040      0.45388742635303     -0.15284382709977
  H           0.05233783030321     -3.37586467775456     -0.39678335133750
  H          -5.28293449435541     -1.60936027876595      0.23041696715496
  H          -5.32274568470190      2.87758490637176      0.39438765262947
  H           5.14546543250115      1.59801158804089      1.88536183709073
  H           6.50843116548497      0.38659102003174     -0.61569456193786
  H           0.20996798374056     -0.45276738289357     -1.68228431039200
  H           0.17925191151510     -1.36544591949198      1.21731563932776
  H           1.70043900279572      0.99648497752201      1.42909983252285
  H           2.45220598159029     -0.93623953572374     -2.32659323916836
  H          -1.81736616679149      2.82932613961304      0.07826735581804
  H          -5.48896810434607      0.60727568768214      0.30319176064266
  H           4.87524644041851     -0.52393921308176     -2.04107608115729
