27
Coordinates from ORCA-job 7127 E -577.914534711357
  O           1.86530358962004      1.86286040376514      0.58138585461922
  O           2.73302458887277     -0.59736940286638     -0.22029494284169
  C          -1.34247574193933      0.10841475439955      0.35768994174115
  C          -2.80950789277609      0.38845471456828      0.61043454452343
  C          -0.38115505653580      1.10210647586935      0.53504217129620
  C           0.96737317598215      0.85829062674561      0.33034803798868
  C          -0.91306531838339     -1.14839630118034     -0.05005536737271
  C           1.39134289903142     -0.42177464759389     -0.06407945079932
  C           0.43618834436118     -1.41553918355191     -0.25761936919333
  C          -3.68884141107227     -0.00298769103855     -0.54065339293941
  C           2.54068175490944      2.38631844112451     -0.56218760609368
  C           3.20069701507069     -1.88650218077348     -0.57470453860874
  C          -4.67292610866980     -0.89094946020709     -0.47879760535464
  H          -3.14069697444279     -0.13723619678488      1.51148525730714
  H          -2.92919130030868      1.45755047764880      0.81036062232013
  H          -0.66684120405054      2.09829415164221      0.85034967754324
  H          -1.63837937855940     -1.93572572287266     -0.21198792536430
  H           0.73601575031925     -2.40680266696993     -0.56434258878137
  H          -3.46730336626073      0.48349333100859     -1.48711905763099
  H           3.18109226902943      3.18733548428419     -0.19765437610903
  H           3.14897765545030      1.62259947922564     -1.04857298746415
  H           1.81980955858630      2.79406584257852     -1.27803953150656
  H           2.92591982069383     -2.63041025155887      0.17890330726575
  H           2.81244614868815     -2.19988013986932     -1.54865391223978
  H           4.28419639624970     -1.80848763660845     -0.62636382260325
  H          -5.27351302928921     -1.13609447785289     -1.34563962176804
  H          -4.91517118457662     -1.40290522313175      0.44631268206608
