44
Coordinates from ORCA-job 71398 E -999.949509078933
  O          -5.80826057671400      0.42485660895955     -2.10169310272795
  O           6.32681468499890      1.47903624220118     -0.28883778154403
  O          -7.10351643226585     -0.23338831071304      0.15861082969654
  O           6.89901862256689     -1.14277570167350     -0.15055173940827
  C          -0.76302883459900      0.73833951595846      0.64364356635722
  C           0.76148913259154      0.52547271708351      0.78515987943006
  C          -1.43483542608794     -0.45327419909178     -0.07010790064849
  C           1.51104902809936      0.60160583265212     -0.56138561897031
  C          -1.14071068541683      2.06480429864573     -0.01712890957388
  C           1.37605573344999      1.47746416850818      1.81168999521328
  C          -2.93940047365118     -0.43050434552304      0.00447236179350
  C           2.93509881249369      0.11594070807069     -0.47856662769760
  C          -3.70453501470668     -0.02979542562685     -1.08978481021683
  C           3.99858017866449      1.01617140892133     -0.43705014237831
  C          -3.59552219160548     -0.77787397283204      1.18319839126078
  C           3.21459068206731     -1.24711866705992     -0.41083542321133
  C          -5.08761554872512      0.02911640619025     -1.01542923101864
  C           5.30829140986438      0.57492372854879     -0.32701707065337
  C          -4.98261369652525     -0.72277574008564      1.26909292588485
  C           4.52465108686820     -1.70101240980310     -0.30051433621339
  C          -5.72876949437188     -0.31913646408618      0.17513921789703
  C           5.57019952395190     -0.79474523734949     -0.25676335368649
  H          -6.74537099490215      0.40201198848690     -1.86636642354950
  H           7.15883365923959      0.99262030872517     -0.21666387117616
  H          -7.46005465744461     -0.49373981426706      1.01396947255372
  H           6.98693922037384     -2.10085373284231     -0.12108169567964
  H          -1.16207912776308      0.75413692415432      1.66436905554639
  H           0.89549775648483     -0.49333538292818      1.16686488789141
  H          -1.12959103272932     -0.47337771059318     -1.11870985803157
  H          -1.06563747146625     -1.37839982630545      0.38264846503421
  H           0.97865533903641      0.00509818040301     -1.30532928850409
  H           1.50130556684124      1.63276763632195     -0.92093404134894
  H          -0.67294286165516      2.91200738046864      0.48570465312429
  H          -0.83749577964033      2.08714746039045     -1.06633578382704
  H          -2.21990115256431      2.21571523597982      0.01374776445232
  H           0.85235157333106      1.40939667081804      2.76767510534654
  H           2.42614207899963      1.24052928345171      1.98491249767993
  H           1.32616959542660      2.51565013597348      1.47565593098259
  H          -3.23093391911938      0.24653428461359     -2.02334361304466
  H           3.82153298211906      2.08296460851736     -0.48966479190138
  H          -3.02291857245794     -1.09841271690013      2.04458400856115
  H           2.40530817200729     -1.96567305845560     -0.44839044511718
  H          -5.48572146992502     -0.99919227046430      2.18953976090543
  H           4.73360157486055     -2.76443174744344     -0.25304790948221
