52
Coordinates from ORCA-job 71552 E -743.371091573683
  O           9.74751837600036     -1.25970504354534      0.18630026659835
  C          -0.56040196915062     -0.31967790378470      0.04241100805806
  C          -1.85288614074732      0.48796280092515     -0.04483310437409
  C           0.70027779459712      0.53750982749889     -0.03719042568612
  C          -3.11364776487405     -0.36906707077242      0.03524222348098
  C           1.99267769622965     -0.27024974478994      0.05005525000063
  C          -4.40615072578345      0.43852973220262     -0.05213897056232
  C           3.25320592052526      0.58719305573124     -0.02909074817096
  C          -5.66692437084194     -0.41841081217648      0.02879619328348
  C           4.54513630841792     -0.22114860283502      0.05796493420479
  C          -6.95948656779745      0.38912425277458     -0.05911765863359
  C           5.80538147807020      0.63664984052085     -0.02066638461743
  C          -8.22026337183721     -0.46756237645597      0.02268495397515
  C           7.09339508130947     -0.17796612538847      0.06654546676279
  C          -9.51389773682309      0.33911624990040     -0.06607716069876
  C           8.34377157645514      0.68564965873369     -0.01270518162222
  C         -10.76780444773720     -0.52740167396866      0.01692243906061
  C           9.64398355751275     -0.06603297349311      0.06799390902347
  H          -0.55210943596180     -0.88857941840090      0.97919161633378
  H          -0.54352228665729     -1.06304748085805     -0.76281568578210
  H          -1.86957322848418      1.23152867730375      0.76027693020570
  H          -1.86125096321603      1.05667156040513     -0.98177785354953
  H           0.69204156018449      1.10645689540387     -0.97399313063643
  H           0.68341492474970      1.28078995869143      0.76818362061917
  H          -3.09693048843570     -1.11275631160585     -0.76971997495310
  H          -3.10528080646331     -0.93765958685286      0.97223180937321
  H           2.00098110059064     -0.83938180332269      0.98663075991842
  H           2.00988307346513     -1.01332013265224     -0.75536971963495
  H          -4.42257746168437      1.18261585011199      0.75249667751831
  H          -4.41473083340918      1.00669225850277     -0.98941420924214
  H           3.24493105094420      1.15646268344241     -0.96571931396344
  H           3.23612719891479      1.33008266432561      0.77666278389387
  H          -5.65032554023482     -1.16276489842779     -0.77555442329368
  H          -5.65844761731016     -0.98622697387319      0.96625403877401
  H           4.55419948158951     -0.79057385563147      0.99411341816543
  H           4.56328155061131     -0.96361317970587     -0.74771719752912
  H          -6.97573201607055      1.13388742212675      0.74491599784855
  H          -6.96811002714077      0.95646364230432     -0.99690717394929
  H           5.79625787322568      1.20663527906734     -0.95705325034671
  H           5.78739711648999      1.37923793394686      0.78557952621675
  H          -8.20435238500199     -1.21307752750184     -0.78086638105686
  H          -8.21254962556810     -1.03461160187711      0.96083851492607
  H           7.11072821372358     -0.74864555799078      0.99884685631097
  H           7.11946080476686     -0.92036989682601     -0.73552614378124
  H          -9.52902337001469      1.08345034028847      0.73720331364160
  H          -9.52084127011580      0.90494571188354     -1.00379022678332
  H           8.37019298341831      1.26887841283051     -0.94328252788656
  H           8.36166089745388      1.43996961669285      0.78572487329380
  H         -10.80189752252834     -1.07950420209202      0.95964706202898
  H         -11.67643760898603      0.07441564604894     -0.04917277868151
  H         -10.79355749632674     -1.25960620280838     -0.79420003882277
  H          10.55298245995628      0.57205098597321      0.00958022074133
