22
Coordinates from ORCA-job 7166 E -537.468767952074
  O           1.21432323206206     -1.33080044722404      0.96776265553076
  O           1.90796786218120      2.38329694998831     -0.88101315891851
  C           1.56867937363202      1.01708538113433      1.05014487892287
  C          -0.65321963351110     -0.06883455573270      0.25679975710031
  C           0.73118752110784     -0.23324364925695      0.77622355800261
  C          -1.14260222755648      1.15882627445861     -0.19700521347817
  C          -1.47644112308029     -1.19860432131456      0.20381096498162
  C           2.30440690952932      1.45370998226987     -0.21892466491890
  C          -2.43461557431659      1.25069626902335     -0.69748731846067
  C          -2.76889415002634     -1.09989718565697     -0.28157959274314
  C          -3.24998991069810      0.12636582089492     -0.73425164944414
  C           3.52673085846578      0.65226712455777     -0.58064542018062
  H           0.95717723132914      1.84600662893449      1.39708745355619
  H           2.29318687528143      0.73661234085675      1.81392703896036
  H          -0.51085107701892      2.03568734645414     -0.19423678795390
  H          -1.07959301666809     -2.14285331736467      0.55043233556525
  H          -2.80348988941574      2.20145958425602     -1.05948952596090
  H          -3.40392364206962     -1.97587740774812     -0.31165279976947
  H          -4.25965307075242      0.20298319107643     -1.11754730540501
  H           3.32479973147871     -0.41655554473253     -0.48645692112531
  H           3.85413595506043      0.89960579322152     -1.58781179725477
  H           4.32648776498577      0.88543274190403      0.12849551299354
