30
Coordinates from ORCA-job 7193 E -617.293748214006
  O           0.53483807958135     -0.16962967674235      0.05004257107666
  O          -0.18033648303914      1.95348573578257     -0.14031459218051
  C           4.30125691081086     -0.60701630341485      0.07065558666964
  C           2.79489805786980     -0.91582213952143      0.10952845968523
  C           1.89820691909926      0.30110094805338     -0.00032758039168
  C           4.73847686222069      0.00988222893820     -1.26066734347450
  C           4.75308717776073      0.25507714489240      1.25253179727240
  C          -0.42116539491200      0.77413525246798     -0.03140451287216
  C          -1.79315078808588      0.20075999949506      0.02788644361852
  C          -2.87356614280889      1.08013453508699     -0.04423329461387
  C          -2.02313039673819     -1.16990596195524      0.15145557511654
  C          -4.17118369806823      0.59441788661502      0.00677310098291
  C          -3.32333070375818     -1.65276477307078      0.20205942330792
  C          -4.39767491504088     -0.77276501717696      0.12996093043286
  H           4.80527104706668     -1.57516417238049      0.16210916066862
  H           2.54801381619035     -1.60213525091494     -0.70552593122775
  H           2.55901839918244     -1.43614702025541      1.04222138181725
  H           2.04277757985251      0.84175140594213     -0.93587491175294
  H           2.05093272282684      1.00594119835156      0.81714043017019
  H           5.82618501997088      0.09212103748502     -1.30879462548008
  H           4.41070707908404     -0.59778337409689     -2.10722339959453
  H           4.33098061235151      1.01485196422486     -1.39189929497576
  H           4.43491816368197     -0.17657531652303      2.20426170026137
  H           5.84122478032239      0.34313920762564      1.27187656979565
  H           4.34666735611178      1.26713874669034      1.19104507928537
  H          -2.67443891247827      2.13857372555755     -0.13983324120169
  H          -1.18408844545623     -1.84791300810073      0.20697406166745
  H          -5.00680901003918      1.28000204079805     -0.04938223976883
  H          -3.49934210566518     -2.71644386092890      0.29783983478521
  H          -5.41096958789386     -1.15209318292476      0.16972786092052
