18
Coordinates from ORCA-job 7196 E -609.305565768797
  O           2.17003456658856     -1.44933402507535      0.21958691653950
  O           2.84551469209479      0.75019871304145      0.02088626245267
  O          -3.07569994820534     -1.44860277962619     -0.22901248185895
  O          -3.47825457739488      0.64293886931803      0.37571559486843
  C           1.07461255765227     -0.63574335018076      0.11211682326443
  C           1.48342633505243      0.68659028435213      0.00021992190364
  C          -0.25030807562586     -0.98607935705203      0.14751786755829
  C          -1.19367504075322      0.05815522710006      0.06255104526556
  C           3.30544645410080     -0.60718390778341     -0.00466644077610
  C           0.58055133594427      1.72221205469414     -0.07325452086263
  C          -0.77282314682466      1.38243989077420     -0.03500425865283
  C          -2.66403017168627     -0.19235032718348      0.09166284976828
  H          -2.34040967758328     -1.96945194168488     -0.57450076899063
  H          -0.53128879325246     -2.02175642971455      0.28603871197293
  H           4.03363395634039     -0.75795289152986      0.79164056640822
  H           3.73403770034557     -0.82534440240188     -0.98810184408338
  H           0.90702694846390      2.74939095358582     -0.15118446787084
  H          -1.52895111525703      2.15277641936656     -0.08261477690658
