17
Coordinates from ORCA-job 7219 E -347.694275676330
  C           0.23084005795147      0.71455678864084     -0.00670543889912
  C           1.65102171376250      1.21516179370755     -0.01152945556786
  C           0.24785566707232     -0.69133535711572     -0.00052821470275
  C           2.45220340915457     -0.06021648422360     -0.00724763659117
  C           1.64175972799917     -1.12940914075190     -0.00108080961930
  C          -0.96734562564165      1.40327714688855     -0.00755274457683
  C          -0.94091562968897     -1.41153378029897      0.00479791581772
  C          -2.16025080474760      0.67948946907219     -0.00218424237470
  C          -2.14491092511255     -0.71321397687339      0.00391956292016
  H           1.86870305830513      1.83026121264823     -0.89175184279454
  H           1.87197270987165      1.83852896721126      0.86200961762258
  H           3.53237899527081     -0.08168090663801     -0.00907921603342
  H           1.95538967387404     -2.16419438878964      0.00290894197853
  H          -0.98717408011472      2.48672674939893     -0.01229682347620
  H          -0.93353040841352     -2.49463834085399      0.00955136826907
  H          -3.10678868849015      1.20476972893898     -0.00275813783626
  H          -3.08088185105251     -1.25744948096132      0.00802315586408
