17
Coordinates from ORCA-job 7225 E -438.986807537629
  O          -1.18334366859654     -1.10525365333640      0.06241384334301
  N          -1.21616715064778      1.13884704199458     -0.07229367645654
  C           0.12094002740318     -0.68442867160230      0.03957713632889
  C           0.10969104447624      0.70758852577135     -0.04396163015496
  C          -1.91382131336731      0.05885295171788     -0.00877717812295
  C           1.27326950381021     -1.44180938278403      0.08714761076206
  C           1.30803158181680      1.41034727352096     -0.08391346592544
  C           2.46739656252906     -0.72744801400878      0.04649112621738
  C           2.48307178035564      0.67040429164999     -0.03734251389761
  C          -3.38666943534900     -0.08475711772424     -0.00291976756683
  H           1.25005429130678     -2.52066019496218      0.15181337092401
  H           1.31649751199297      2.48981963113430     -0.14865764713837
  H           3.40540585033472     -1.26581897298351      0.08050812244145
  H           3.43555711430613      1.18327736361748     -0.06635589356985
  H          -3.72036525224887     -0.58397528661353      0.90919532798029
  H          -3.84130901056650      0.90065399344346     -0.06271797738415
  H          -3.71704343755572     -0.68917977883503     -0.85030678778039
