36
Coordinates from ORCA-job 72277 E -1106.503996211470
  O           0.62870269893010      0.58049957102625     -0.18978054683700
  O           0.06579634965123     -1.30525681102975      1.86823621474361
  O           4.49369216032390     -2.15842711633477      0.25705429192644
  O           4.85139481911962      2.60822563141528     -0.33984179000493
  O          -3.78664501255573      2.28088340353690      1.19331524740175
  O          -4.82595611495207     -1.59016078904641     -1.39947787506291
  O          -5.68412659378734      0.61263111853086      0.04804813647598
  C           0.25405989552400     -1.69976337418844      0.51871094481585
  C          -0.16626134815621     -0.58304134184664     -0.44963192969251
  C           1.70172777221036     -2.08252034017831      0.22205692237646
  C           2.55394160366557     -0.85517759395219      0.03876476453059
  C          -1.61998031622256     -0.21282974005129     -0.33637319344019
  C           1.98466515758890      0.40502026857529     -0.15076433318185
  C           3.94703595920845     -0.91780824604009      0.08191945958806
  C           2.74846774118110      1.56115609992148     -0.27144601612487
  C          -2.55535962361342     -1.05027511910805     -0.94040116352445
  C          -2.02653675013443      0.90713472866991      0.37669303242798
  C           4.74029866382198      0.21690265163256     -0.04180989216857
  C           4.12791595904176      1.45734075351421     -0.21318479717852
  C          -3.38318079739294      1.17932739003115      0.50480779133048
  C          -3.90887754517764     -0.77962036315592     -0.80508825785421
  C          -4.32107387065705      0.31854324462188     -0.05504898919744
  H           0.43646991620123     -0.42169008132388      1.98442636861330
  H           5.45271491884696     -2.08452424365995      0.30942224716973
  H           5.79216154253078      2.40703214403517     -0.28883871930554
  H          -4.73833081987383      2.38456105222436      1.05409664298752
  H          -5.69079490040053     -1.16381471143623     -1.32018911477016
  H          -6.04283052863065      0.18975918395057      0.83979252685161
  H          -0.39898368532471     -2.55980700077846      0.36961778849328
  H           0.04214624771348     -0.92216390720225     -1.47109233772286
  H           2.08228629936670     -2.69161172333582      1.04272551989431
  H           1.73735175685286     -2.71078865088349     -0.67453798657451
  H           2.27006854660822      2.51839491259773     -0.41680151801096
  H          -2.25064452628583     -1.90713274776964     -1.52699328602527
  H          -1.30780820938561      1.57879465879348      0.81957543456302
  H           5.82187363416333      0.13585208824454     -0.00669158751323
