38
Coordinates from ORCA-job 72303 E -847.041197673562
  O           0.13119178977404      2.08578168453951     -1.75104765799333
  O          -4.09111847421721     -1.32754469743369      1.34677576647589
  C           1.02272705030063      0.46928214415887     -0.24286842597391
  C          -0.32568151262299      0.03001029465731      0.17661838923439
  C          -2.60369318227856     -0.66401593338122     -0.36984170271275
  C          -1.34702304208595     -0.21105557608856     -0.74618786190647
  C           3.45337409323561      0.26199551130183     -0.00765317617044
  C           2.15519959198590     -0.11686209037575      0.32297731120416
  C           1.22682574867268      1.48115811742489     -1.19534371987243
  C          -0.60373333619367     -0.19620508088169      1.52475897881068
  C          -2.84872049983498     -0.88091030476644      0.98992174893662
  C          -3.69712356427667     -0.87531170410622     -1.38975352151008
  C           4.64127197375155     -0.41152462792913      0.64711223715752
  C           3.61839082149488      1.26433689741364     -0.95590474993357
  C          -1.85079847407233     -0.64840132052593      1.92878768111470
  C           2.51479425893532      1.86813324645676     -1.54346854047904
  C          -4.58834810255433      0.33183547856816     -1.50364506426742
  C           4.63605865353855     -1.90222677835751      0.47218012436294
  C          -5.88712356286540      0.34574834938256     -1.23727376645491
  C           4.60887986041387     -2.78388085039981      1.46333896910840
  H           0.42587367010143      2.78739406615710     -2.34202126419245
  H          -4.13042214144114     -1.43007244723332      2.30389889331018
  H          -1.15481349822972     -0.04759038457817     -1.79772919971322
  H           2.01145440479632     -0.92052170652740      1.03442638384513
  H           0.15719855221313     -0.00265331979193      2.26938618353712
  H          -3.23072605208070     -1.07209897800733     -2.35953901084896
  H          -4.29648149162399     -1.74816007679802     -1.12778107100848
  H           5.55697716856638      0.00173951014462      0.21310379473413
  H           4.66571130183703     -0.17524996988974      1.71540145589091
  H           4.61426592612122      1.58008460528341     -1.24263089626321
  H          -2.05325926126148     -0.81394226914137      2.98175727763549
  H           2.65412880949668      2.65447418048817     -2.27811960732933
  H          -4.09262141445440      1.24905548462863     -1.81084604847231
  H           4.63549311231351     -2.25408939324360     -0.55621467199482
  H          -6.47562084361135      1.24993267250045     -1.33046069465599
  H          -6.40524982296001     -0.54771886779647     -0.90801395982466
  H           4.59884900497037     -3.85015217875318      1.27626883920954
  H           4.59755048414575     -2.46797068709943      2.50098457700998
