82
Coordinates from ORCA-job 72326 E -1323.489393712162
  O          -6.04345775221077      1.36624069378992      0.99064500283291
  O           4.58598391674677     -2.95347187643067      1.29885615514018
  C          -0.55876704103544     -0.95960573164764      0.16286239967441
  C           0.86153769385756     -0.84367550271609     -0.55735715586444
  C          -1.24270285951578      0.44399836194940      0.07598356541995
  C           1.71767272263427      0.18899788140479      0.25087834771426
  C          -2.76731229008706      0.53264387657365      0.43194910943076
  C           3.16277619143158      0.20300158065832     -0.24564817035996
  C           3.83598523234627     -1.18448005900667     -0.14655969307239
  C          -3.50265037733686     -0.56348729147319     -0.38705408371531
  C           1.57412151960249     -2.22196531579067     -0.62334457508267
  C          -1.44529609399234     -2.00942217224598     -0.53603374727213
  C          -0.39222054052237      1.50577790951239      0.78545665681155
  C           1.04710553940493      1.56451297383293      0.27018483213116
  C           3.05771773777552     -2.16792363448415     -1.01839385671382
  C          -2.91210953414902     -1.94676988804918     -0.11854696641211
  C           4.18610427759714      1.17203560702414      0.38601815815137
  C          -5.06729661809869     -0.53313197876294     -0.35093247415734
  C          -3.28205490096808      1.92963899052216     -0.05201921251597
  C           5.25819518911522     -0.85117693810847     -0.61608381368232
  C          -0.37832513461386     -1.42625950695943      1.62666357682758
  C           0.72250792352809     -0.37847010869774     -2.02514803659439
  C           5.56598016603116      0.51388281437984      0.03521237370639
  C          -3.01758398159821      0.41584464817036      1.94507770250440
  C          -5.60428579033950      0.93489706091393     -0.30241848607732
  C          -4.57559913753627      1.89185359145909     -0.87966413726227
  C           3.90222209171291     -1.69728922933022      1.29991694419778
  C           4.13004818406540      2.61186433614514     -0.06310601810901
  C          -5.56589708875157     -1.12772008776565     -1.68162014731737
  C          -5.67631949184329     -1.36319831597731      0.78577097094470
  C           4.04597411846742      2.88022070874373     -1.54011713997292
  C           4.20082524051422      3.60846904054784      0.81686433371681
  H          -5.33484763027684      1.85504375781213      1.41864482528822
  H           4.64392767653882     -3.27157814677653      2.20466834194126
  H          -1.23479472437362      0.69737375192853     -0.98599314956630
  H           1.74290273573400     -0.15274646295629      1.28764589048619
  H           3.14775293256575      0.43096596958587     -1.31469278710576
  H          -3.24213111700372     -0.33718336760089     -1.42853793078233
  H           1.50148502626241     -2.73927371980101      0.33157507783598
  H           1.04678054951938     -2.85454069401650     -1.34027509409903
  H          -1.40850510564653     -1.87268289658968     -1.61797858454424
  H          -1.04974951421926     -3.00801611834728     -0.33682117872102
  H          -0.84869956199481      2.49046038443118      0.67124316065800
  H          -0.37183726691594      1.31418553089103      1.85972054113729
  H           1.62537786829460      2.24246292573068      0.89761973130371
  H           1.06204640396243      2.00340206299029     -0.73055037840599
  H           3.16510408811585     -1.86190213152074     -2.06220814355686
  H           3.48578412382365     -3.16825367098876     -0.94110925907733
  H          -3.03065013035582     -2.21593316202032      0.93193288128133
  H          -3.46264045096634     -2.70384712546223     -0.68035056831147
  H           4.05783341810654      1.16747773984037      1.47087428176631
  H          -3.41543497935624      2.58565797749839      0.81333950962816
  H          -2.52007317536869      2.42010194382161     -0.65920795133928
  H           5.97888282159797     -1.62270779633404     -0.34880819212312
  H           5.25948399012631     -0.76134169556048     -1.70553239927527
  H          -0.09964221997912     -0.62633634227788      2.30696898395827
  H          -1.29495898178779     -1.86551291112847      2.01058033946538
  H           0.38336001300872     -2.19908396761167      1.70462690871405
  H           0.35260111290291      0.63669764225448     -2.13419870861264
  H           1.68468231022515     -0.41700793973372     -2.53136395702909
  H           0.05500642295725     -1.03365211685190     -2.58246892478754
  H           6.14821477206417      1.15248427387212     -0.62872768124710
  H           6.15835302741777      0.39896821035696      0.94335559621043
  H          -2.42981289683709      1.15737220189398      2.48695686397795
  H          -4.06283136873767      0.58776386279642      2.18921601130868
  H          -2.76053209767534     -0.56043142196438      2.34395939463780
  H          -6.51289121758070      0.96626332881444     -0.90821084826992
  H          -5.00175854382220      2.89560805659984     -0.94812246324436
  H          -4.34979618629821      1.58203878621240     -1.90228366170460
  H           2.90069675264744     -1.82126568353155      1.71724089712773
  H           4.43549357808460     -0.98115191759742      1.93229733957310
  H          -6.65458351504969     -1.21215066899231     -1.68007057572244
  H          -5.27843122842790     -0.50212797936785     -2.53015944349850
  H          -5.15651893043780     -2.12417105733022     -1.85212236410177
  H          -5.31526785908403     -1.06534575678315      1.76612044282201
  H          -6.76096258461074     -1.24521406272383      0.79306268365028
  H          -5.45659957435846     -2.42243801138900      0.64669413374516
  H           4.20100292632923      3.93663698714370     -1.75711219465307
  H           4.78989813282669      2.30315741087052     -2.09607518146350
  H           3.06860453914008      2.59418341991045     -1.93638185098779
  H           4.20912096510803      4.64568952867556      0.50440608258939
  H           4.25074656157299      3.41798863314554      1.88252413810119
