72
Coordinates from ORCA-job 72341 E -1517.051752377436
  O           3.98197256162003     -3.47562338031027      0.81783233327527
  O           6.41471623038716     -2.94836768306840     -0.56500392869143
  O          -8.78858081384248     -1.58751948436249     -0.41694369691490
  N           2.97365748198798      2.44761983551457     -0.29799028197802
  N          -1.70176190922222      0.18945407656637      1.96637187132069
  N          -3.58215951673351     -0.03565406841466     -1.21544171708142
  C           0.19681865175033      1.89679571317463      0.36938217775697
  C           0.62624997885129      3.24178486383031     -0.24827321378752
  C           2.64969266773972      1.21624793945245      0.41208049953142
  C           1.22352768551012      0.80946379994860      0.04016660042221
  C           2.08837636022631      3.52914210997361      0.09402107376693
  C          -1.21405234008034      1.48450132591449     -0.06830313039542
  C          -1.71561939551783      0.15104607578679      0.50164092487982
  C          -0.27319459541188      4.40702242832982      0.18511759093797
  C           4.37907341177992      2.79861571898794     -0.19576932262771
  C           3.65881630098938      0.11584844369786      0.13687681961833
  C           5.20675486623729      1.77597184762566     -0.95444945806305
  C           4.86464437094409      0.37690572200329     -0.51558837156509
  C          -3.11887981574805     -0.14172120338608      0.07721724013118
  C           0.07412944080771      5.75165238223949     -0.45369608357699
  C          -4.12349983319298     -0.57241674249547      0.89657841510307
  C           3.40816252183830     -1.18063401460122      0.58674390396245
  C          -2.39771051818998     -0.93042340824466      2.60254839032147
  C          -3.90214060537868     -0.82096437540947      2.35192411642531
  C           5.75603627645578     -0.66925103102701     -0.74733671298630
  C          -5.29083987927042     -0.73313429207887      0.08374494396735
  C           4.30192659755817     -2.21564198270998      0.37042445087765
  C          -4.91867747948011     -0.38581957107617     -1.23957125784333
  C           5.48764405721842     -1.96183700126231     -0.33063812826896
  C          -6.60223897366868     -1.13903458151494      0.34671324066781
  C          -5.82587812754115     -0.43355441810694     -2.28765328578719
  C          -7.50454883477325     -1.18598782504127     -0.70145189893446
  C          -7.12339621200169     -0.83634218293657     -2.00665060922532
  C           4.79970071240431     -3.95727196868238      1.88731246718703
  C           5.99847268027155     -3.95399617149083     -1.49249344715348
  H          -9.31092733275807     -1.57485996559232     -1.22576389772668
  H          -0.74651509268590      0.23412013989773      2.29449718441260
  H          -3.05504534984003      0.30186911029988     -1.99899296447474
  H           0.18901409711483      2.03883974512381      1.45764008059803
  H           0.56575798909955      3.14242524245119     -1.33961883505344
  H           2.66712200788107      1.40992081382635      1.50563306312559
  H           0.96572583240742     -0.11159483413657      0.56162184302307
  H           1.20230615051986      0.58596949788732     -1.03084600552557
  H           2.16737659868720      3.73898721545720      1.17964915882913
  H           2.41845848409722      4.42798494170022     -0.42645393382361
  H          -1.93617378500920      2.24585227351384      0.22514071609689
  H          -1.22618555169845      1.42767511760977     -1.16303947165163
  H          -1.07486682362396     -0.66211242355768      0.11597356810129
  H          -1.30876597769345      4.17012064918979     -0.06147944650248
  H          -0.23520530980157      4.49701097345277      1.27636922961118
  H           4.51833019893890      3.79165312105370     -0.62634227770245
  H           4.71196205825068      2.85076856399299      0.85725176951804
  H           5.00972570441194      1.88923716853138     -2.02506753826910
  H           6.27270062148454      1.96242662938932     -0.80154322903897
  H           1.04132164507907      6.13110559216837     -0.12123682923280
  H           0.10511911827440      5.67119560379380     -1.54358455774332
  H          -0.67448774372062      6.50387373072955     -0.19854077713113
  H           2.50425344725436     -1.41871635790204      1.13145040481859
  H          -2.04530960226297     -1.90434455671265      2.22433253748256
  H          -2.18392911485569     -0.89474498533943      3.67192484995830
  H          -4.31888678908149     -0.00845343067874      2.95664212749898
  H          -4.39600980860434     -1.74349079200980      2.67100175792506
  H           6.69168350408706     -0.48562222735797     -1.26206899305600
  H          -6.92592958418358     -1.41235825773986      1.34223855697537
  H          -5.54075654297185     -0.16844625688359     -3.29814736573182
  H          -7.85502585078949     -0.88368178563556     -2.80558473899636
  H           4.69910940563738     -3.30970594517898      2.76348860964007
  H           4.43318080413769     -4.95331938045340      2.12837620369497
  H           5.84890943653525     -4.00885452059473      1.59152255239109
  H           6.82467533475086     -4.65801641834067     -1.57158846279093
  H           5.10283983403436     -4.46979807000212     -1.14209783213861
  H           5.80362798237243     -3.50882881877875     -2.47269457238350
