51
Coordinates from ORCA-job 72344 E -1415.040067817019
  O           0.21511457224592      0.05725501619756     -0.01121716907563
  O          -4.11873167003799     -2.10320878759869     -0.07316256632199
  O          -0.95679195692930      2.43093790957132      0.11244988660146
  O          -5.26567284362155      0.35453583824612      0.03647927496393
  O          -3.70286191213819      2.61233045092516      0.33676996205990
  O          -1.70851229684222     -3.49434077664482     -0.45167772151746
  O           4.68152484945143      1.95053382044058     -0.22118407409736
  O           6.48044853382333     -0.23649570061879      0.06602703492909
  C          -1.89577114038620     -1.12799394133926     -0.12903419469474
  C          -1.14602890373490      0.04973788890846     -0.01885213036798
  C          -3.30224742029167     -1.01595814194062     -0.08198710114985
  C          -1.73694497484813      1.31136990706505      0.09373936671412
  C           0.91069444929820     -1.10023727536671     -0.09398712982933
  C          -3.90350285591663      0.23320034840754      0.04228177119209
  C          -3.12296321507822      1.39562663018172      0.14015271182257
  C          -1.16682681426221     -2.40954223455449     -0.27449739445049
  C           2.35982730169531     -0.87646925086582     -0.05018341356221
  C           0.27860602519191     -2.28594738939838     -0.21485795232515
  C           2.87012091988059      0.42053278777685     -0.15512758549272
  C           3.25592152055884     -1.94078747640291      0.08436899489424
  C           4.23511365700123      0.65672962595326     -0.12472904346350
  C           5.12487152086862     -0.41435596351057      0.03864672228701
  C           4.61854349316646     -1.70701783009514      0.12980781368434
  C          -4.46126598193303     -2.63080593276167     -1.35849233457082
  C          -0.72368309796238      2.97296066320491      1.41595799757516
  C          -5.89208760054952      0.06500025746577      1.29109199554291
  C          -4.33526893783395      3.17736939374425     -0.81852887033668
  C           5.36361201401429      2.26059652808502     -1.44104912686382
  C           6.98636408097468      0.50348322976031      1.18392565461654
  H           0.84150963722639     -3.20100999400778     -0.31109926856186
  H           2.20700620062350      1.26470213017574     -0.27510068383913
  H           2.89217457680136     -2.95372790023184      0.17860695831025
  H           5.31945144788456     -2.52243153047498      0.24926015100365
  H          -5.14784948749460     -3.45370528648663     -1.17249024615274
  H          -4.95743316073916     -1.86450775306702     -1.96007293990882
  H          -3.57230019996614     -3.00904354861846     -1.86251355658912
  H          -0.20422551899477      2.24574394151072      2.04613123928442
  H          -0.09265630808813      3.84802157218918      1.27497985911164
  H          -1.66502544374810      3.26714648406001      1.88414844478908
  H          -5.68634538025619     -0.96298731881002      1.59298000272117
  H          -5.54320535991012      0.76050091397330      2.05902403227840
  H          -6.96100254652550      0.19800839427376      1.13669324675587
  H          -4.75339966968307      4.12945771124418     -0.49910852795582
  H          -3.59666884694233      3.34647152953541     -1.60608424766279
  H          -5.13038217303447      2.52466202598145     -1.18042987144607
  H           5.65819096401700      3.30540458595957     -1.36837660561325
  H           6.24721351437591      1.63329223071562     -1.57114112045588
  H           4.69196505319789      2.12872072626336     -2.29384468420503
  H           6.56879879041645      1.51017715166953      1.21597618267131
  H           6.75537051102115     -0.01952653602846      2.11596739813728
  H           8.06497808401365      0.55038987533736      1.05107585856382
