21
Coordinates from ORCA-job 7247 E -350.125073106860
  C          -0.73059127337220      0.77972462255397      0.03875405140501
  C          -1.15208234826725     -0.56036206600298     -0.00803554833537
  C           1.60228002393787      0.06328064634499     -0.03424146777144
  C           0.63054075904384      1.06282615708605      0.02475504608575
  C          -0.18568409974622     -1.55803687431332     -0.06680389091471
  C           1.17160206965064     -1.25696644980752     -0.07996234154346
  C          -1.73491199330244      1.89754036221750      0.10314996229049
  C          -2.61425630676551     -0.91162073402446      0.00494762056925
  C           3.06528324392552      0.41602453793681     -0.04751207345274
  H           0.94632425930642      2.10047465490156      0.06116026216741
  H          -0.50032266824227     -2.59468297964489     -0.10319550134038
  H           1.89886868573437     -2.05893229356030     -0.12629416135772
  H          -2.36982298907227      1.81554597812852      0.98967360793822
  H          -1.23949220239016      2.86762236633382      0.13359527440046
  H          -2.40239792303521      1.88720673238218     -0.76294670370130
  H          -3.10914249779476     -0.54283387495682      0.90777660421976
  H          -3.14212575714475     -0.47019968420701     -0.84504729664148
  H          -2.75612798255529     -1.99131946657357     -0.03711116579091
  H           3.34637697537677      0.97496313058125      0.84865822860667
  H           3.68673412698888     -0.47861907672020     -0.09273386410803
  H           3.31421889772399      1.04124531134443     -0.90875464272550
