24
Coordinates from ORCA-job 7269 E -389.432738349878
  C          -1.22221833829320     -0.70035096350791     -0.00021206433826
  C          -1.22223870226944      0.70034349526850     -0.00021636703566
  C           1.22226441525530     -0.70032412938197      0.00043596693673
  C           1.22224979640189      0.70038128066130      0.00040773138713
  C           0.00002422478722     -1.36625449225359      0.00011054360196
  C          -0.00001055546502      1.36628086257699      0.00007747495227
  C          -2.51106329724388     -1.47552571198201     -0.00050384863722
  C          -2.51109949715285      1.47549327060932     -0.00056509542824
  C           2.51113458026313     -1.47545988222437      0.00078944881623
  C           2.51110282671399      1.47554677120365      0.00079551915033
  H           0.00004573089540     -2.45117048486841      0.00008168636880
  H          -0.00001666499656      2.45120090469466      0.00002369690017
  H          -3.12075028199507     -1.24268725638226      0.87708113711485
  H          -3.12114679264616     -1.24135112011808     -0.87745089152047
  H          -2.32184740411474     -2.54879906852825     -0.00133638990957
  H          -3.12154504676557      1.24152328642835      0.87617604399366
  H          -2.32189259724003      2.54877048231141      0.00009782884190
  H          -3.12040564447283      1.24244621460697     -0.87836590830113
  H           3.12113827639144     -1.24141659552022      0.87782763885255
  H           2.32193390022201     -2.54873987472565      0.00142909804910
  H           3.12087845605436     -1.24245930881718     -0.87672698575252
  H           3.12032165957105      1.24268753242490      0.87870780702915
  H           3.12164415034090      1.24136080313401     -0.87583772331440
  H           2.32188680575867      2.54882498438983     -0.00013234775735
