33
Coordinates from ORCA-job 72819 E -785.744973112623
  O           1.56374214397001      1.06835701728674     -0.48222407773047
  O          -0.31555607272237     -3.21788152349370      0.10123734476123
  N          -1.68628852465841     -1.38487378238211      0.15212810500928
  C           2.92323987292882      0.62121868389882     -0.15596399286034
  C           0.53424143537293      0.23711794927086     -0.24970458997185
  C           0.70079097386970     -1.11432113989261     -0.17367113033192
  C          -0.76312538068124      0.83640624543244     -0.15150316167200
  C           3.07475448439425     -0.84850780215565     -0.45258892686754
  C          -1.87099578379739     -0.01797418981571      0.05248621689416
  C           2.02059430313116     -1.66318589656467     -0.40727161364788
  C           3.82909160323874      1.47527463089839     -1.02948945566108
  C           3.14804394951173      0.90026111154918      1.33035437610946
  C          -0.42932196238577     -1.99962436334818      0.03511378420477
  C          -0.95513936182813      2.22036691437400     -0.24576065303405
  C          -3.14726071581763      0.55602187489721      0.15389885437757
  C          -2.83303920310306     -2.25683393844429      0.37118761855150
  C          -2.21764876542855      2.76753467273654     -0.14858553739434
  C          -3.31163135334898      1.92533844127515      0.05217206603159
  H           4.07308683398571     -1.21300626158464     -0.65826781492726
  H           2.10189155363140     -2.72968884278360     -0.56342949735813
  H           3.66122566684623      2.53389733260994     -0.82861024807258
  H           4.87414841739366      1.24367708002719     -0.81892924838185
  H           3.63422834034157      1.28165968119300     -2.08419134198570
  H           2.44207244316149      0.32873299447618      1.93358052205311
  H           4.15824828654381      0.60326690398477      1.61692912735709
  H           3.01973247482528      1.96349342644441      1.54199508761399
  H          -0.08810526663501      2.84703144595670     -0.39635109309567
  H          -4.01270193519308     -0.06808427756606      0.31034569073429
  H          -3.33499343561425     -2.00241651227242      1.30605551067969
  H          -3.54484657008160     -2.17156310260216     -0.45170127317696
  H          -2.46030078125642     -3.27372893106940      0.42265877945580
  H          -2.35769223936855      3.83731855418157     -0.22432374970660
  H          -4.30737043122606      2.34239960348211      0.13223632204267
