12
Coordinates from ORCA-job 7302 E -306.465144094028
  O           0.03261756611307     -1.10197940769238     -0.02368093106793
  O           1.99758193234539     -0.02277005847654     -0.05529307250423
  C          -1.47734283187132      0.71250177210240     -0.21853337327718
  C          -0.09352992542859      1.23726988641738      0.15718418384959
  C          -1.36121417039644     -0.77258496244228      0.13839960295534
  C           0.80534619860008      0.01859531939108      0.01309103969903
  H          -2.29383884034182      1.20006315988858      0.31187503624599
  H          -1.65025501689131      0.82899487897792     -1.28951561191202
  H           0.27674934538016      2.05151914351543     -0.46130111749750
  H          -0.04432170763402      1.56272905357612      1.19995542934699
  H          -1.93320224151165     -1.43004899227057     -0.51310600644703
  H          -1.64055630836356     -0.96854079298713      1.17681982060895
