34
Coordinates from ORCA-job 73067 E -918.905242099213
  O          -0.47313317692141      0.28465562115836      1.77899255534866
  O           1.45383403295377     -1.70906973815923     -1.00717257170536
  O          -4.39201759677716      1.29443830321905     -0.88078849050056
  O           4.64169842568469      1.69382240315156     -1.48827603429230
  C          -0.11687916546373     -1.90448967316678      0.86489370909696
  C           0.56765520939496     -0.73396343487641      1.60770332456709
  C          -1.28856323273810     -1.19937416743639      0.23189120330946
  C           0.83942815108576     -2.60272902713056     -0.08473586280580
  C           1.70809603950420     -0.14660779440246      0.82161360882458
  C          -1.42543386912326      0.03930897436286      0.83582437719945
  C           2.05400103997159     -0.62256368058665     -0.44675986461347
  C          -2.19695317267166     -1.58115860172299     -0.74065101897231
  C           2.39337495404368      0.96460510178194      1.30814640660711
  C          -2.43946734307455      0.92795827238163      0.51747982184604
  C           3.03379825030596      0.00374632722403     -1.20987763976832
  C          -3.22722813411459     -0.71928533877871     -1.09112627864919
  C          -3.34918537552397      0.52532445252341     -0.46351942976589
  C           3.37501082144785      1.59932970385206      0.56877115171369
  C           3.68733865072671      1.11533595362889     -0.70351469220599
  C          -4.56450602836276      2.57111342626827     -0.29192328948362
  H           5.02354469722089      2.44805806891010     -1.02555945065174
  H          -0.46655582206650     -2.65285739271646      1.58530476176032
  H           0.87871789431549     -0.99755985682600      2.61763719727110
  H           0.31620650583648     -3.33893804499554     -0.69325738385808
  H           1.62310310093808     -3.11770304111200      0.48430575498239
  H          -2.11258486809583     -2.54192722443665     -1.23378287462800
  H           2.12707957875677      1.35353646172260      2.28329026672481
  H          -2.49672718358745      1.88496665036760      1.01167714452493
  H           3.28360611824614     -0.38238867324554     -2.18788297503582
  H          -3.94882102246128     -0.98492593359576     -1.85083260077420
  H           3.89223304838127      2.46442464705659      0.96710166467612
  H          -4.73621240622901      2.49393416017853      0.78602346251918
  H          -3.69850104778547      3.21472059674123     -0.47377365791240
  H          -5.44183107381755      3.00449749865940     -0.76651129534888
