37
Coordinates from ORCA-job 7311 E -621.864723580695
  O           2.45808583995614     -1.94952915153787     -0.00410159489862
  C           2.32982551947761      0.94207108979272     -0.02760346048983
  C          -2.76095805251891      0.37367279722215      0.01621750734356
  C           1.09918411012328      0.02651619319987     -0.01058868259436
  C          -1.35468138109537     -0.23167125530222      0.01020376486314
  C          -0.19813270379195      0.54534966316845     -0.00518858260080
  C           1.94217862193432      2.42738548608275     -0.03700643834871
  C           3.16596729253316      0.67519898185225     -1.29525476675520
  C           3.18503127242739      0.69608718801193      1.23153044211594
  C          -3.50814858040252     -0.08216575680659      1.28350282054635
  C          -3.53031223759722     -0.10709218088382     -1.22846072128892
  C          -2.73776881973607      1.90666898635318      0.00064309297750
  C           1.21221468791423     -1.37054433668569      0.00045170651615
  C          -1.18916210635276     -1.61445213222864      0.02080544526699
  C           0.07653028109458     -2.17272025520096      0.01597055700131
  H           2.35569804714903     -2.90734946363055      0.00486601035518
  H          -0.30577341150854      1.61595702119423     -0.01348732367521
  H           1.37185634126103      2.70703771889184      0.85073428909827
  H           2.85072754075638      3.03171256295462     -0.04909606440817
  H           1.35805094734053      2.69215092394968     -0.92030731237296
  H           3.51831376026200     -0.35249407566619     -1.33670678825854
  H           2.57301792954492      0.87245613053711     -2.19090011406505
  H           4.03495384949303      1.33743144104436     -1.31254147256253
  H           2.60568249471050      0.90820011047086      2.13269386892244
  H           3.53800008342906     -0.33083905855550      1.28449121540757
  H           4.05414100576538      1.35836978935769      1.22487381838483
  H          -2.98193415355993      0.24758645671092      2.18130024822491
  H          -4.51669100388532      0.33790398080112      1.30362155220730
  H          -3.59698012189628     -1.16818638528969      1.32831282303717
  H          -4.53917206732348      0.31254768138333     -1.23878288353342
  H          -3.02027951112843      0.20503414831130     -2.14175184600226
  H          -3.61983747459666     -1.19373649185468     -1.25037910359516
  H          -2.22972096487089      2.31256552387173      0.87735822010323
  H          -2.24375323637242      2.29470669157271     -0.89203623527650
  H          -3.76071815597522      2.28733143964306      0.00508172145684
  H          -2.04761061908867     -2.27294706279061      0.03304808382220
  H           0.19149697652807     -3.25221239994487      0.02431620307536
