46
Coordinates from ORCA-job 73205 E -1225.387210382468
  O           1.55684287267261     -0.49513547715584     -0.44111351922884
  O           3.44325559777486      1.31397407537386      2.70198416909802
  O          -4.61480960026719     -1.17452479191755      0.66173798679376
  O          -3.18039045117328     -2.51533592482783      2.47694676099055
  O           5.72877480471791      1.12414803547459      1.28488846859145
  O           5.35100316001813     -0.66190115494813     -3.13304539306236
  C           1.00015754564602     -0.57780986561267      0.88472299975224
  C           1.40058529384512      0.65645073750908      1.67480604544469
  C          -0.48784073644417     -0.74903808142399      0.76537459052135
  C           2.91109367679306      0.81711945846691      1.73014440986090
  C           3.61283088193445      0.36543241669489      0.51723949376609
  C           2.87877325184024     -0.22548400119509     -0.53811828660091
  C          -1.21647054651302     -0.02859810926008     -0.17466134390021
  C          -2.60232435815308     -0.14250353455198     -0.25506927548355
  C          -1.15059050356133     -1.59237593650427      1.65060824958703
  C          -3.39318536019558      0.60195326569969     -1.30787374553407
  C          -3.25340264359134     -0.97535926038660      0.65245301691414
  C          -2.53167027542377     -1.69941692847716      1.60354342330558
  C           4.99318530025668      0.57372568100382      0.29526667893804
  C           3.46079023271685     -0.55918242132742     -1.75211682065360
  C           4.81261645023510     -0.31863996357836     -1.93418613376773
  C           5.58435533851510      0.23807523571864     -0.91600396810260
  C          -4.47057617945396      1.47470294193170     -0.72106621346813
  C          -5.78110414362678      1.47193635481124     -0.99468892358062
  C          -6.71073083770849      2.43260399925987     -0.30526510219146
  C          -6.44748005744058      0.56820088907156     -1.99459160038503
  H          -5.05188002591532     -0.38223712194380      0.30821681711819
  H          -4.12854078080541     -2.43570287737709      2.29968448207503
  H           6.63768221362260      1.23315862703829      0.98061537756405
  H           6.29501631378096     -0.46660790980243     -3.13705029929144
  H           1.43011004929390     -1.46596922704384      1.36277205753914
  H           0.97259158899255      1.54331380841018      1.19573121963852
  H           1.01691766118735      0.60928588910684      2.69288955385008
  H          -0.69778734593642      0.61173598536831     -0.87567848748312
  H          -0.60912960691999     -2.16958791772458      2.38948958205212
  H          -2.69851110533228      1.22573927759568     -1.87674494220872
  H          -3.81620637148072     -0.11303728850848     -2.01656923351266
  H           2.86927084120899     -1.01769720286670     -2.53021018699193
  H           6.64539262141843      0.41050216979597     -1.06492558724049
  H          -4.11465485363618      2.18400499740794      0.02183204496743
  H          -7.50688044092000      1.89714075062893      0.22100895800865
  H          -6.18493709665972      3.06090073375912      0.41310171259622
  H          -7.20278063893453      3.08252473951760     -1.03548201869934
  H          -7.27627620275867      0.02663465596912     -1.52898276588341
  H          -6.88201109126075      1.16173754152769     -2.80462812510670
  H          -5.77329544235821     -0.16084827070762     -2.43777812659633
