41
Coordinates from ORCA-job 73207 E -1221.958488015496
  O           0.63373576544727     -0.22746739347290     -0.00779233908082
  O          -0.99100606784099     -2.34257587940438      0.01049707594429
  O          -3.75544675975156     -1.96125982557785      0.06362812183911
  O          -4.78704660378204      0.63201085426551     -0.13575088714901
  O          -3.15857509329146      2.73194680378491     -0.19398640027362
  O          -0.56106963940385      3.65531293680505     -0.19047779348358
  O           6.83888808742314     -1.12462851226798     -0.01796357113303
  C          -1.19817623238648      1.35221462988596     -0.10338247886142
  C          -0.69995636049415      0.04327062761266     -0.04226540647154
  C          -1.52535416227268     -1.08052433121835     -0.00238091839261
  C          -2.59680316561207      1.51113723052489     -0.11649614469985
  C          -2.90551596162418     -0.89604490388190     -0.01618179130584
  C          -3.43313371864050      0.39452664739040     -0.06664092323482
  C           1.54528376040289      0.77716268345438     -0.06537709843006
  C          -0.23735620752497      2.47744291223145     -0.14810446192439
  C           1.15875007483886      2.06601663334980     -0.14231626126678
  C           2.91945414183944      0.27031447587586     -0.04376526637281
  C           4.00559353433288      1.12302044912126      0.18971814893251
  C           3.17908849437802     -1.08556982081617     -0.26323544449819
  C           5.30161501616177      0.64694690912262      0.19502981424062
  C           4.47666640274856     -1.57120397261537     -0.26117410873559
  C           5.54399161183239     -0.70693713808497     -0.03360027750001
  C          -0.73803136741834     -2.85438134897536      1.32208693288896
  C          -3.84990622784623     -2.74611103200970     -1.13324938567981
  C          -5.51797354182600      0.33975521770979      1.06518222981231
  H          -4.11585687014016      2.58360798299888     -0.25941094373920
  H           6.87889253216628     -2.07302825595485     -0.18699001849068
  H           1.89132182099042      2.85484398384311     -0.21280437424499
  H           3.83555251695127      2.17243129327458      0.38548006726997
  H           2.35634449494319     -1.76143957334305     -0.44540733622993
  H           6.13817139709754      1.30651974222614      0.38106478422111
  H           4.66066466852306     -2.62489772511595     -0.43950037141454
  H          -0.00619887911652     -2.23283890152580      1.84423503006335
  H          -1.66347827369172     -2.90188892545869      1.90122114966147
  H          -0.33667723811153     -3.85743344226558      1.19000725227122
  H          -4.55356735472606     -3.54645836575118     -0.91488640247776
  H          -4.23147867795575     -2.13471920201036     -1.95455919321219
  H          -2.87841822912340     -3.16510812435515     -1.39686979123930
  H          -5.11400195455269      0.91070657326007      1.90555666108494
  H          -6.54615256331976      0.64150468987262      0.87597120935471
  H          -5.47617316962385     -0.72609760250435      1.28669991195781
