37
Coordinates from ORCA-job 73285 E -733.966910162105
  O           2.04065477206059      1.32401759076700      0.31900511639268
  O           3.78882708069671      0.40062936526400      1.39070073687589
  C          -1.17702860918690      0.93931438968284     -0.03935435013258
  C          -1.16589073518420     -0.55926110518678     -0.47265046286925
  C          -0.09722511112952      1.67949508820819     -0.84515865339361
  C           1.32099692389572     -0.48876394932472     -1.02622492054880
  C           0.19988452844043     -1.19251055144954     -0.23940145674468
  C           1.27812451820570      1.04314603081214     -0.88908620831307
  C          -2.54658781506411      1.54206110714367     -0.40849856656179
  C          -2.32719907343241     -1.30103351073319      0.14662767278407
  C          -3.72719786887656      0.77983052145118      0.18916745922217
  C          -0.92922967423427      1.09785383772165      1.46836514393164
  C          -3.66886121675091     -0.70597126628090     -0.19030154766186
  C           2.65690858308567     -0.78386755181790     -0.41110991610183
  C           2.94405068056651      0.33072154420829      0.54371555267937
  C          -2.20521715893805     -2.35745144084971      0.94517339100075
  C           3.48699212188628     -1.79954947015460     -0.60236960055106
  H          -1.34881605905546     -0.55331634497312     -1.55804923189057
  H          -0.43360064952914      1.74552688661023     -1.88533016969573
  H           0.00406002079026      2.70766381510254     -0.48799381418553
  H           1.26668492934357     -0.77448975488559     -2.07803517072035
  H           0.43751216896583     -1.17755502189524      0.82573626866680
  H           0.18972796946324     -2.24369826974305     -0.53312682197868
  H           1.84299146628391      1.49263640948036     -1.71120732570154
  H          -2.57397872028208      2.59021237596805     -0.09673233236284
  H          -2.64413219873324      1.53885611020353     -1.50027476579491
  H          -3.72648343819679      0.87525278614827      1.27752846365563
  H          -4.66550784267803      1.21623256629638     -0.16152575430256
  H          -1.62799095600464      0.50176382417041      2.05370747320875
  H           0.07905647878813      0.80791398965326      1.75337817438619
  H          -1.05271592902790      2.14469807649834      1.75359183421569
  H          -3.83422198186032     -0.79504610588747     -1.27151711674241
  H          -4.46652564857594     -1.26330997472269      0.30340761681973
  H          -3.07950779265533     -2.83763192990145      1.36781945182060
  H          -1.24687680898021     -2.78288062053456      1.20978447620119
  H           4.41365174532221     -1.85461344100294     -0.04507778072393
  H           3.26983430058126     -2.59099700604688     -1.30868686488354
