20
Coordinates from ORCA-job 7342 E -386.284444161895
  O          -0.90855370312617      0.29378885084648     -0.27925183722730
  O           0.22332332937281     -1.50092170671940      0.46555688007994
  C           1.45242608579047      0.40960568915888     -0.37797955260607
  C           1.77059803662362      1.36092287673355      0.78694410663758
  C           2.63042687151531     -0.50460100973010     -0.70025053271082
  C           0.21932763744036     -0.39783157892306     -0.02085447430274
  C          -2.15032742755548     -0.34494653815488      0.08964288194070
  C          -3.27439810960822      0.59788827892318     -0.27157097895791
  H           1.19898694183708      1.01448904237323     -1.25195335315484
  H           2.00099614036447      0.79373044971264      1.69110671048840
  H           2.63864960224320      1.97471737490430      0.54107715095119
  H           0.93119931633814      2.02414379917524      0.99819094582629
  H           2.87234565745108     -1.13504544459382      0.15558235117833
  H           2.40687687124022     -1.16016877697273     -1.54297734079303
  H           3.50885141186694      0.09172943985658     -0.95302877490271
  H          -2.22540669944383     -1.29511528094521     -0.44136127160002
  H          -2.12632121423151     -0.56450967333662      1.15828867783558
  H          -3.17933673103508      1.54267543983827      0.26558217762270
  H          -3.27803830319764      0.80871621420298     -1.34191318126446
  H          -4.23287371388577      0.14739155365049     -0.00694958504082
