51
Coordinates from ORCA-job 73467 E -1414.375783773118
  O          -0.88119574998161     -0.72388652053094      0.92954682311937
  O           0.79826495245449     -1.79610378577863     -0.14723599298092
  O          -2.35681332778127      0.75074693304315      0.03007142542171
  O           3.33752740452138      1.86296287593298     -1.16514291401030
  O          -2.88038796229743     -2.78500022142436      0.82465619589378
  O          -5.55076155276465     -1.75836284304787      0.68964723688963
  O          -5.83622137435587      0.49324916739703     -1.01181969719033
  O           5.28818948470941     -0.39376456016600     -0.09618847066469
  O          -2.54232229032721      3.12352562694229     -1.42424989468938
  O           4.73522795573955     -2.11977360254120     -1.43352439203554
  C           1.30589588525705      0.17521754413569      1.23115674758840
  C           0.89001084195038      1.64499828462283      1.49197670655349
  C           2.68338656203494      0.26019994425147      0.56257044320289
  C           0.33406056341941     -0.50612749334350      0.28519693078969
  C           1.47617391185522      2.41697816951188      0.29759529562576
  C           2.62472130880666      1.57005922091316     -0.24498154962161
  C           3.03120673608822     -0.96221189989242     -0.22536076787581
  C           1.43201535928532      2.14850927037701      2.82852196164168
  C          -2.02218337792526     -0.61839292449571      0.12686325937881
  C          -3.14343290085031     -1.39239973808230      0.80435493086667
  C          -4.43197989661102     -1.18622350595246      0.02753571189629
  C          -4.72432645134478      0.29495765562141     -0.15718969103188
  C          -3.51687799157593      0.99333512990012     -0.77869360187464
  C           2.09727557895620     -1.88594834870772     -0.49002251468198
  C           4.40791997928170     -1.23972969691700     -0.67085305601546
  C          -3.67942574753168      2.49908305127737     -0.85395998995408
  C           6.65189584114343     -0.54182286097514     -0.51102992537183
  H          -2.03884875795117     -2.92837053466834      1.27467661636996
  H          -5.36741748409604     -2.69569241705074      0.82642476739555
  H          -6.54779885784226     -0.07642405264076     -0.69356371161114
  H          -1.78045754173338      2.86730536034623     -0.89159033453175
  H           1.33141667307454     -0.40708221465549      2.15345980726857
  H          -0.19755148991583      1.71659021590786      1.50841485853243
  H           3.44757243271803      0.42658400459476      1.32779957562081
  H           0.18415865583372      0.09378159430536     -0.61977009710415
  H           0.75715565143021      2.54068157839341     -0.51686880693996
  H           1.83333551998040      3.41666959809380      0.54840816897219
  H           1.03700912376597      1.55783791916224      3.65704517102462
  H           2.52296561095822      2.09496526969344      2.86842982648887
  H           1.14819097318941      3.18970757383582      2.99122540225373
  H          -1.82705925445695     -1.03148771847229     -0.87321922139654
  H          -3.25945528707576     -0.99668404060025      1.82043876354686
  H          -4.31251584253750     -1.64150652422889     -0.96507817007501
  H          -4.91498674972573      0.73469868319442      0.83123479436637
  H          -3.34691037175471      0.59757747268569     -1.78835021849878
  H           2.33249261258880     -2.81059979425458     -0.99827004687577
  H          -3.87972200615848      2.88563309196347      0.15363495415185
  H          -4.53091550146887      2.73596712282956     -1.48897383890521
  H           7.20551121558546      0.22374487321557      0.02571354378107
  H           7.02383984224037     -1.53450846638482     -0.25876011810506
  H           6.73684030223721     -0.39196362941867     -1.58668020162128
