36
Coordinates from ORCA-job 73484 E -729.899551521370
  N          -2.45937532438547      1.26031730451448     -0.22209096522995
  N           3.49377122754019      1.17083779453646      0.31516921336991
  C          -1.07079285639281      0.91018057789980      0.07953035300209
  C          -0.74932752368633     -0.43657284453998     -0.62369597346334
  C          -0.08159387752098      2.02022953345142     -0.33238611645857
  C           0.65961394773740     -0.89209043990833     -0.29322834378131
  C           1.31536160179253      1.53618408874761     -0.10580312195304
  C           1.57229511852128      0.14013339465014     -0.09797393742754
  C          -1.81078063521861     -1.45389122681986     -0.33489524054873
  C          -3.38765935547021      0.30137229719405      0.36152879741229
  C          -3.01382097967562     -1.13152697348240      0.12577277511607
  C           2.93156222325997     -0.07720518836880      0.17005801520125
  C           2.51111385161847      2.14273065654524      0.15610155321254
  C           1.15470387196687     -2.18121131907116     -0.20527690765802
  C          -2.84906109620150      2.60677307972170      0.15751333965544
  C           3.43101261917427     -1.37780960275774      0.24803939499776
  C          -4.07188134591198     -2.14293340386315      0.44718094068053
  C           2.52178597170655     -2.40810428741733      0.05855538099752
  H           4.45645696275150      1.35909728213294      0.52577185005292
  H          -0.94637440970721      0.74979859246059      1.16741950037013
  H          -0.76563542083783     -0.22370233533900     -1.70311764257114
  H          -0.25254698891120      2.26273978256892     -1.38762233145882
  H          -0.26996080000098      2.92824253150879      0.24018848553497
  H          -1.57526910750034     -2.49528615007029     -0.52143251444601
  H          -3.49395513331181      0.46044583166379      1.45493779108393
  H          -4.37991320816224      0.48777997261023     -0.06357850847643
  H           2.76254860517987      3.18639074254646      0.25152964799663
  H           0.50723917828686     -3.03733422923781     -0.33752719505955
  H          -2.70391596642003      2.81150209906715      1.23354916690162
  H          -2.29814099062664      3.35147688636082     -0.41297652730230
  H          -3.90899023516669      2.73981756663115     -0.06456996336410
  H           4.47389705380418     -1.58576029768198      0.45077223027754
  H          -4.40137435536121     -2.05008018160098      1.48712194707730
  H          -4.95866871851565     -1.99829825139366     -0.17824480609957
  H          -3.70838857714802     -3.15936532221856      0.29613794985895
  H           2.87367867279340     -3.43039796104070      0.11673076249908
