84
Coordinates from ORCA-job 73493 E -1436.848125756485
  O          -7.18907497926374      0.95737529364520     -0.35937770095161
  O           4.31288177783257     -2.71332517631669      0.54589494246479
  O           3.65198618568286     -1.01680254113951      1.84480933754793
  C          -0.70692403590416     -0.85127233802151     -0.04965219936789
  C           0.66758350588602     -0.53931915525141     -0.80345956411072
  C          -1.47084690046255      0.50007491240358      0.15396204999879
  C           1.50338562049431      0.42573956743799      0.10070834167211
  C          -2.96561601809160      0.40385647696121      0.63014496126614
  C           2.92001143258942      0.60886809330524     -0.44382269417609
  C          -3.69136265266556     -0.53832489453975     -0.37728732482137
  C           3.66672582086164     -0.73097616539163     -0.59174981031875
  C          -1.57879132866653     -1.80457348684467     -0.89088317914820
  C          -0.62421584136781      1.49609751779103      0.95681414830878
  C           1.47110392574085     -1.83995235520295     -1.06986721096012
  C           0.75496734751781      1.73450679252943      0.34104019229129
  C          -3.02402386546508     -1.91282184852467     -0.41038670101045
  C           2.90173919646020     -1.61347670269498     -1.57721141977196
  C          -5.24828537978222     -0.58554311695898     -0.31774718354489
  C           3.91241621227743      1.54444845284573      0.28373590977985
  C          -3.59631862103904      1.80796501505579      0.48786264973642
  C          -0.43298154262524     -1.55387881656852      1.29650996054390
  C           0.41789538206898      0.09964039623568     -2.18821673124527
  C           5.06303726480577     -0.24563545015225     -1.02640290767447
  C           5.31737593359878      0.99484129423874     -0.14787300380942
  C          -3.09695649254800     -0.02674079777956      2.10518328753058
  C          -5.76349605048783      0.87175540051679     -0.41721516512644
  C          -5.11877626403082      1.80716315163497      0.59175547746957
  C           3.84468920404602     -1.46190851078834      0.74031194880118
  C          -5.80955559064869     -1.28636773468148      0.92854406096476
  C          -5.78223899948077     -1.33618058331864     -1.55084691142613
  C           3.77989947530414      3.01858749700266     -0.01276701084303
  C           3.66256433112123      3.43930349382892     -1.45167222660654
  C           3.81203384549232      3.91777200241142      0.96842350517153
  C           4.56230115234809     -3.47763944630311      1.73330499368555
  H          -7.46282958245371      0.82280027454493      0.55473066173844
  H          -1.57280674556136      0.92846431148100     -0.84522301050819
  H           1.61654469611336     -0.05425495798011      1.07155759603832
  H           2.84536924703391      0.98301826148873     -1.46774842352481
  H          -3.48441177804098     -0.08678537237250     -1.35807342264168
  H          -1.60896798087900     -1.46361345596619     -1.92697826005457
  H          -1.12401404806718     -2.79782075924375     -0.90374225540881
  H          -1.14188544683789      2.45244607783540      1.03140147252909
  H          -0.49060678283501      1.14498400589234      1.98222373890234
  H           1.54210938759537     -2.43315673000122     -0.15799912189541
  H           0.93139086443483     -2.45643198007742     -1.79065650476303
  H           1.33794591217546      2.37259618796789      1.00465904699665
  H           0.65147409256603      2.29102911572844     -0.59518258467608
  H          -3.07095472087378     -2.38869202287831      0.57074816738588
  H          -3.55917958204291     -2.57691057393174     -1.08917589818487
  H           2.89950052430237     -1.11670143666804     -2.54976433878594
  H           3.39914022681059     -2.57352601142504     -1.71262477877480
  H           3.80294213948719      1.40372394619794      1.35707748848538
  H          -3.19077275045581      2.48230505234002      1.24336591283128
  H          -3.31291665033361      2.22420349949890     -0.48514176506914
  H           0.03922367680789     -0.91070095226218      2.03394953640421
  H          -1.35444680243221     -1.92093234876722      1.73592484028286
  H           0.20987684667324     -2.42149682221425      1.16305057246048
  H          -0.20352554940805      0.98943200944528     -2.15351984941252
  H           1.35447998507086      0.39413017026146     -2.65706736591181
  H          -0.05695469184012     -0.60829437246675     -2.86625218426819
  H           5.83416094984762     -1.00988205804861     -0.92956300332363
  H           5.00736941899456      0.03216706251490     -2.08190641943234
  H           5.89925153690530      1.74850355676674     -0.67794082800984
  H           5.88654657764349      0.72977877181030      0.74321955487781
  H          -2.26786159020094      0.35886461082044      2.69616036003515
  H          -4.00766056199757      0.36602297647605      2.55240913829417
  H          -3.12016183966662     -1.10480603368699      2.23790277844564
  H          -5.51582071925270      1.22974177234471     -1.42180131928033
  H          -5.43426517840906      1.52497493832504      1.60158064066408
  H          -5.50334214892894      2.81566695960381      0.42365956396095
  H          -5.64811200099282     -0.72728100940911      1.84768251820455
  H          -6.88313820612621     -1.44701440902331      0.81427683257436
  H          -5.35252702857786     -2.26777677627914      1.05816839764706
  H          -5.62092237274176     -2.41163477981489     -1.47582394349222
  H          -6.85425140737971     -1.16503380828061     -1.64677199872044
  H          -5.29894629958148     -0.98381186256097     -2.46559425569419
  H           3.77076216064991      4.51842740256892     -1.55641040384882
  H           4.42154499773447      2.95741829968501     -2.07475592818665
  H           2.69119944954840      3.15755013835318     -1.86642472105951
  H           3.76461937654152      4.98158417114382      0.76867042071764
  H           3.88391257744370      3.61617955067349      2.00659427626072
  H           5.31212751456562     -2.98724833192099      2.35352544605750
  H           3.64626630492465     -3.59286360757343      2.31203555276607
  H           4.92187395044822     -4.44359488828167      1.38927924804736
