36
Coordinates from ORCA-job 73635 E -1069.362990375272
  O           0.52129087739379      0.59411287369868     -0.20586968579552
  O           2.34105683180982     -3.05287460333293      0.10249974431905
  O           4.69620399950236     -1.74083551539051      0.14995626084761
  O          -4.08700727597119      0.86171080401447      1.82627639219212
  O           4.47422262003752      3.03399550894255      0.09608710682020
  O          -5.74980033531542      0.10342526407201     -0.23897205502453
  C          -0.14573664818697     -0.59751260494089     -0.66656324051538
  C           0.32740628452451     -1.78656884477278      0.15161969635619
  C          -1.62670403552773     -0.36563173265234     -0.58771148639241
  C           2.57762924720642     -0.67943192016634     -0.01158906056328
  C           1.83665648266641     -1.94890459966451      0.06924364347995
  C           1.86889219069691      0.54226470596855     -0.09270647682192
  C          -2.20051830344321      0.18986544141246      0.55423587331987
  C          -2.45464588646126     -0.74626761578218     -1.63478480791352
  C           3.98555528353270     -0.59479750307163      0.08174644900097
  C           2.50433675205866      1.77418053649823     -0.05094504450054
  C          -3.57084084327896      0.35962356935176      0.66308363851141
  C           4.62982428131461      0.63510325817295      0.12062503369071
  C           3.88445267104614      1.81117862746095      0.06204157643147
  C          -3.83232651225624     -0.59359456556799     -1.53525602476140
  C          -4.40155605766684     -0.04946360419926     -0.39177510092464
  C          -4.70000496456369      2.14915931247494      1.72664713572809
  H           5.63213030590740     -1.52800530808731      0.24657934804071
  H           5.43096988587384      2.93579771178041      0.16192412415666
  H          -6.19884347234310     -0.23286392763616     -1.02261137582153
  H           0.14015005425005     -0.74624858673644     -1.71474378608612
  H           0.04842646901538     -1.63784792507988      1.19999704657726
  H          -0.14169987195371     -2.70761693940572     -0.19125483531181
  H          -1.58339198386156      0.51211942123709      1.38210406056911
  H          -2.02911697330956     -1.16866445256136     -2.53661003743940
  H           1.92934279629186      2.68499336026831     -0.12394945010749
  H           5.71158242062693      0.67555126106277      0.19685206356297
  H          -4.47378724116529     -0.90180919232254     -2.35391719806731
  H          -5.02396460289311      2.40884154368544      2.73239770639375
  H          -3.97490757827387      2.88917537617179      1.37442817569408
  H          -5.56100486728359      2.12886186509739      1.05734159035464
