83
Coordinates from ORCA-job 73641 E -1548.010493216512
  O           6.70813091072570     -0.97645428524053     -0.29309527897888
  O           5.25128218095590     -2.98973765549888      0.78820702077375
  O           6.63205045782331      1.14227046327925     -2.02134570789933
  O          -4.06076585750754      3.07295670688768      1.00342406112825
  O          -3.57462217250554      1.37645297937632      2.32589257960926
  C           0.29421290851973      0.88826106407922      0.07029173126121
  C           1.07736419707239     -0.40334819197917      0.44290374111985
  C           2.59347074440217     -0.24063130788761      0.82076846877470
  C          -1.06875218265145      0.42940830284260     -0.61756065163660
  C           3.25487237697668      0.53908999520997     -0.35786390278354
  C           1.12415813944887      1.75037781669388     -0.90135972568297
  C           2.58935567181740      1.91051518746334     -0.50214274509506
  C           4.81367782997392      0.55348740234171     -0.40726108391216
  C          -1.84528261038224     -0.44652589522732      0.36689329316090
  C          -3.36117563835167     -0.53777598905655      0.30941177214454
  C           3.20190945460893     -1.65796214774100      0.87012580668425
  C           0.28205514778003     -1.24145175946897      1.45192049254786
  C          -1.88216347376509      1.67478117324400     -1.05169080658936
  C          -4.02135819426802      0.82382227161859      0.00286815846336
  C          -0.00728275777923      1.73607061156124      1.32274029896271
  C          -3.37063132494508      1.41077943499853     -1.25802527553916
  C           5.27845565980209     -0.91362724564145     -0.30773121604018
  C           4.72098070502618     -1.65626705450932      0.88932856195388
  C           2.82063071014398      0.42146715042021      2.19722332167360
  C          -1.19932000642170     -1.19463190854216      1.25543102134383
  C          -0.83417563110077     -0.41374283767039     -1.89706703520359
  C          -3.82850258684907     -1.63927495964598     -0.66116778756562
  C          -5.55588228656480      0.66909277263050     -0.15572564744437
  C          -5.35379348403870     -1.80673230385807     -0.75689342515393
  C           5.23511778542633      1.06550276988824     -1.81117433987890
  C           5.47449380298677      1.44444721858652      0.65166227395657
  C          -5.96188449688832     -0.44213496141236     -1.11931472656959
  C          -3.83551720196460      1.74862615826351      1.21757457748911
  C          -5.93312815833525     -2.33379188568747      0.56308883756766
  C          -5.67591307097060     -2.81154366389702     -1.86719084909360
  H           6.93709226306709     -1.89733053062344     -0.11045420315762
  H           5.10740083857126     -3.44896626226408      1.62177658348848
  H           7.02883257252000      0.33582203620361     -1.65976364131846
  H          -4.25139209041985      3.23474724277178      0.07060120571583
  H           1.12265762256581     -0.98909837442914     -0.47674344008524
  H           2.96453862503427     -0.02813276967183     -1.25327293124143
  H           1.11502184741531      1.31104424600949     -1.89960582456962
  H           0.66209285818939      2.73559745406229     -0.99395280729789
  H           2.67762246526867      2.48365408581923      0.42123331661276
  H           3.08532208209445      2.50545891477320     -1.26778283617499
  H          -3.68523150518592     -0.82460425665846      1.30885217515020
  H           2.83513126152198     -2.19624016761556      1.74796875595430
  H           2.88473355876836     -2.22828305689702     -0.00812170068425
  H           0.61117892593618     -2.28396275749242      1.40916400810003
  H           0.48927550200623     -0.92050816895436      2.47802657965608
  H          -1.78325419296527      2.46514248187837     -0.31069457901287
  H          -1.45328533974222      2.06826187740536     -1.97513099129835
  H          -0.65811926125934      1.22395158608679      2.02687623525833
  H           0.90713607276900      2.00179414621728      1.84214257513561
  H          -0.49104945237587      2.67520546417012      1.05913943857852
  H          -3.86955508906360      2.33641059166609     -1.57027891490873
  H          -3.53149544191193      0.72173241823370     -2.08707382155338
  H           4.91172697508861     -1.43799018593666     -1.20227471657689
  H           5.10903013258815     -1.19465229821192      1.80114258802319
  H           2.04005875496301      0.14324826745700      2.90248466270259
  H           3.76355965521300      0.10674491703498      2.63795906119632
  H           2.84549223756386      1.50594501816732      2.15112181194229
  H          -1.78196303303878     -1.80663309169472      1.93861463607930
  H          -0.44653034676594     -1.40424751095250     -1.67090293525878
  H          -1.77318988263904     -0.55786983656276     -2.42835783650800
  H          -0.15311399353792      0.07743291022290     -2.59114465121375
  H          -3.44528059917483     -1.44992731950416     -1.66511608150242
  H          -3.37363347108461     -2.57958984309340     -0.34018790348083
  H          -5.98757287321878      0.47307566730848      0.82810390990859
  H          -5.98195479528192      1.61902646773644     -0.49137184434162
  H           4.86276609798366      2.07684631236981     -1.96742855970378
  H           4.76312520495103      0.41892583944988     -2.56621987546554
  H           5.35939994226209      1.06007910518015      1.66146566392845
  H           6.53838562556790      1.53584386283234      0.44703868960006
  H           5.04380455170784      2.44608785581350      0.62299794218811
  H          -7.05305442294151     -0.51663811056035     -1.13897273483152
  H          -5.65500132864084     -0.18093165059268     -2.13659183868023
  H          -5.73337729530842     -1.67285190677737      1.40579537865063
  H          -7.01623242281565     -2.45474666081908      0.48545915854096
  H          -5.50436215767757     -3.30947981626360      0.80257930074105
  H          -5.23513802212160     -3.78749811700584     -1.65057034841585
  H          -6.75522349014841     -2.94726322784256     -1.97174380833008
  H          -5.28448771449808     -2.47264627486722     -2.82945366508802
