82
Coordinates from ORCA-job 73659 E -1472.785707431006
  O           6.88781482786469     -0.96867024039760     -0.55590234125073
  O           5.39962206532995     -2.98252154347764      0.54454556316231
  O          -4.33341086647158      2.90180491158951      1.07678944739469
  O          -3.91094210570846      1.10413335007371      2.27955279307912
  C           0.54240161756650      1.05414691299916      0.02614360564557
  C           1.29503675898692     -0.26071813864766      0.39399396285056
  C           2.83174101934844     -0.15134602739042      0.71257384020988
  C          -0.85495698566930      0.65518666440330     -0.62686669174690
  C           3.47673349407974      0.61504135836484     -0.47914852704880
  C           1.37676380844785      1.87546981695758     -0.97697911704592
  C           2.85125834707195      2.00387127953677     -0.60692062615900
  C          -1.60025406577027     -0.32150266949265      0.27865537682333
  C           5.02968415942398      0.58655574829895     -0.58960313648523
  C          -3.10580956883502     -0.50781919294369      0.15296225274472
  C           0.50642252446929     -1.04110814945568      1.44619091519896
  C           3.40192003671885     -1.58660049331423      0.71867549065453
  C          -1.72134065348520      1.92195285724068     -0.83338295070964
  C          -3.88443554488296      0.79972189271951     -0.12961540079210
  C           0.30051523381990      1.91336350049332      1.28452139322432
  C          -3.15957494902647      1.60423653219189     -1.21651822858557
  C           5.46821345453383     -0.88952926449457     -0.52900863988252
  C           3.13238446727425      0.48311811581805      2.08722803956198
  C           4.92173053116046     -1.63194793665981      0.67633041948158
  C          -0.96308762132058     -1.05644015862992      1.18597734039602
  C          -0.68087042547604     -0.01560056097496     -2.01164797459113
  C          -3.54870715011315     -1.59078431848010     -0.84293476281566
  C          -5.33384379469384      0.46635919599640     -0.59843367620822
  C          -4.99994988355914     -2.05479837763518     -0.56168631091825
  C           5.44636860728265      1.11458479925915     -1.97555494376086
  C           5.75866882879157      1.43452313347264      0.46342316336655
  C          -5.82529536590651     -0.85724641427044     -0.02584958239502
  C          -4.01336278298971      1.58524704373360      1.18623112553582
  C          -4.99997359873411     -3.17469901216700      0.48346648241264
  C          -5.61794426488357     -2.57846510258277     -1.86227144368840
  H           7.10980540130961     -1.89150902049810     -0.37940984391119
  H           5.24921274894511     -3.44941891165876      1.37275191902530
  H          -4.36794940782448      3.16211039340362      0.14749027627020
  H           1.27820487306520     -0.87315046106312     -0.50985868673949
  H           3.14376666822155      0.05876996502366     -1.36621915697542
  H           1.34214065309854      1.40656475260730     -1.96069207740520
  H           0.93435366135627      2.86794634102526     -1.08941239175353
  H           2.97374064520324      2.57547367859563      0.31444009235814
  H           3.35249170639474      2.57775371545244     -1.38635190137187
  H          -3.42718216942572     -0.84586242084826      1.13631144519113
  H           0.86555038725954     -2.07260446885687      1.49516334354344
  H           0.66941595133451     -0.63195099861988      2.44869214566649
  H           3.05647974263376     -2.12849057163382      1.60327630078282
  H           3.03256930920429     -2.13452905179057     -0.15337707234937
  H          -1.73912026823767      2.51575304022195      0.07900528875233
  H          -1.26487311607254      2.54551239717813     -1.60413446240596
  H          -0.47103890489454      1.48932360633012      1.92565451062220
  H           1.20312022933990      2.01294972961126      1.87689150779204
  H          -0.00712973378378      2.92326751633639      1.01631586124990
  H          -3.70011982541256      2.52819880668547     -1.45710122266997
  H          -3.19537503207969      1.02548558694775     -2.14093734103576
  H           5.06027627792424     -1.39188505288994     -1.41963782374154
  H           2.38997872559504      0.19012667008510      2.82716344358807
  H           4.09544747493855      0.15622313270121      2.47088335134136
  H           3.15935096481969      1.56892089570045      2.06031413784253
  H           5.35709590549757     -1.19631692445241      1.58006362783216
  H          -1.54844228311416     -1.71630317534505      1.82048047569694
  H           0.05302670457174     -0.81845011178851     -1.98499761549273
  H          -1.61371874589547     -0.46262646113461     -2.34431913492522
  H          -0.37725220339781      0.70273996410854     -2.77359892240298
  H          -3.48181296727753     -1.22097984068930     -1.86872128176261
  H          -2.87080357135302     -2.44374229916522     -0.78145545743240
  H          -6.01227426578177      1.27904820600286     -0.32928700000728
  H          -5.33732377916622      0.41799498017236     -1.69054557127787
  H           5.30260326658913      2.19196533366264     -2.05615830441419
  H           6.50156317434389      0.90534989010832     -2.14687994565481
  H           4.86997880549920      0.63335325804658     -2.76966145065379
  H           5.64590170001254      1.05675667158809      1.47585979008717
  H           6.82439686413703      1.45734706925546      0.24104290194499
  H           5.38705693863083      2.46010373574395      0.44644646339165
  H          -5.76193965727611     -0.81690267778846      1.06407915445253
  H          -6.88091088769432     -1.00404044998887     -0.26675874599251
  H          -4.49006339421794     -2.86258910389294      1.39743291093205
  H          -6.02137211273573     -3.45404459339061      0.75334235691166
  H          -4.49626653725454     -4.06605557765839      0.10204884911632
  H          -6.61182911430935     -2.99592823694644     -1.68421653474173
  H          -5.71547844173043     -1.78194667931238     -2.60423566877667
  H          -4.99645751563524     -3.36371775931676     -2.29967939815592
