16
Coordinates from ORCA-job 7405 E -475.164819067268
  O          -2.67142060386668      0.82955820747453     -0.10757326782438
  O           2.81365793193858     -0.30224769299002     -0.07014703920948
  O           1.47286086502330      1.37561622334051     -0.62739108280937
  N          -0.65233403127699      0.44141253908386      0.92069211762154
  C           0.52074943484522     -0.37163024490272      0.74913398253640
  C          -0.03328061659914     -1.60888788106676     -0.01503200568171
  C          -1.25243945189169     -1.06145169472473     -0.76091946681558
  C          -1.66220257640126      0.18014698314080      0.02365431505468
  C           1.61926906138008      0.34156526820598     -0.04740286520471
  H           2.78300291760397     -1.11134487353692      0.45787618881469
  H          -0.60401039489877      1.35651536315412      1.34130737417712
  H           0.94099542648293     -0.66803764906695      1.71603670993689
  H           0.71222031571715     -2.05433268794279     -0.67220270967291
  H          -0.33560963299104     -2.36257667708319      0.71174078988641
  H          -1.00627141535347     -0.73683054067577     -1.77413551367989
  H          -2.08163522971218     -1.76245964240993     -0.82806752712969
