21
Coordinates from ORCA-job 7406 E -350.118239404549
  C           1.77954542111770      0.37326166656941      0.15522256470934
  C           0.28006872054801      0.17287731024960      0.07554877893701
  C           2.41478077751281      0.45737557677404     -1.23807461435251
  C           2.45244944987398     -0.71296358726192      1.00326883376088
  C          -0.59274407359899      1.13037587571784      0.58794851477476
  C          -0.26785848363467     -0.96992234714866     -0.51037894196420
  C          -1.97106179064831      0.95801591884118      0.52037828781681
  C          -1.64270343224371     -1.14841932076497     -0.58120349121707
  C          -2.50158045608628     -0.18364438150516     -0.06532231909950
  H           1.94664028498944      1.33300542392124      0.65360316769554
  H           3.48462490475885      0.66406330574353     -1.16173638982536
  H           2.29489960732685     -0.48236628092857     -1.78162186245641
  H           1.95413986788363      1.24784945074296     -1.83274533243188
  H           2.01836919771021     -0.75559650087912      2.00348403444589
  H           2.33442902942869     -1.69769508163283      0.54577537967235
  H           3.52257135008057     -0.51716474683977      1.10130350621295
  H          -0.18636170160259      2.02441588034760      1.04677786194672
  H           0.38583950233264     -1.73167673029613     -0.91734922885917
  H          -2.62889963631785      1.71662928539216      0.92581890644143
  H          -2.04593019458101     -2.04260903999806     -1.04010792079273
  H          -3.57376134484995     -0.32219867704436     -0.12025373541485
