21
Coordinates from ORCA-job 74096 E -424.356577033629
  O          -1.42598351109738     -0.49241134498645      0.04332002040854
  O          -2.87420820656927      1.21403702578136     -0.18894654935987
  C           0.95505840938091     -0.34283233341310      0.17439781450741
  C           2.18353549771690      0.57552978324527      0.17797623457820
  C          -0.32987560413967      0.44517083564363      0.03706090528976
  C           3.46210628509518     -0.18250358396107      0.36226983531584
  C          -2.66162196504432      0.03341073928111     -0.07977653324141
  C           4.46206075800565     -0.21691786577893     -0.50881864183746
  C          -3.71074460179930     -1.04522717637805     -0.06160787090810
  H           1.03385440388621     -1.05826607804939     -0.64777151400506
  H           0.92288350815973     -0.92494991988401      1.09965705297376
  H           2.22555960005893      1.14569819434204     -0.75438177977071
  H           2.07642270786819      1.30514697740219      0.98973178158795
  H          -0.35835466124191      1.01569322651461     -0.89342705823027
  H          -0.46303323627246      1.15007354350975      0.86036957052257
  H           3.54600125137604     -0.75066593119668      1.28612512280375
  H           5.36055048921046     -0.79086013117079     -0.32088091474490
  H           4.41860021869517      0.33247770315349     -1.44307385861439
  H          -3.64715846528357     -1.61036006405400      0.86940025306676
  H          -4.69507803297495     -0.59574974036201     -0.15790168962324
  H          -3.53796384503056     -1.74513585963896     -0.88048918071913
