17
Coordinates from ORCA-job 7410 E -384.838613496802
  O           2.32341699430710     -1.18190000988188     -0.10227760533500
  C           0.27367480065456     -0.01477248704968     -0.01599471826859
  C          -0.40226790017455      1.20576859698976      0.04070102660964
  C          -0.46562259625744     -1.20055383538069     -0.03991830662460
  C           1.76661768561876     -0.10402356701663     -0.05241157737172
  C          -1.79030771135357      1.24072857074541      0.07288091077910
  C          -1.84980260937331     -1.16609041823480     -0.00779584264107
  C          -2.51532296344783      0.05571132278691      0.04870539083776
  C           2.57095627288568      1.17763241777265     -0.02578115699608
  H           0.14997902849351      2.13507862359951      0.06000989805129
  H           0.07127337699182     -2.13820396560706     -0.08389383517108
  H          -2.30528564344525      2.19170523558741      0.11676902989246
  H          -2.41420601265137     -2.08958285047920     -0.02664757475112
  H          -3.59733991564775      0.08285951202614      0.07380686105716
  H           2.35858802409655      1.75062615279452      0.87965291376520
  H           3.62850353941005      0.92820609336208     -0.05765980541975
  H           2.31993762989302      1.81155960798557     -0.87921860841361
