30
Coordinates from ORCA-job 74112 E -877.931636569097
  O           0.29934015607791      0.49195836018993      1.20221159264735
  O          -1.29121673582112     -2.04525126056001     -0.74176419718179
  O           2.98433485326875      0.48085113468057     -0.65869360471470
  O          -2.30233425895379      0.87928251130020     -0.54147803825596
  O          -1.48141286724565     -1.46022976360710      1.42226677724824
  O           3.44164311418844     -0.70837197695204      1.19277644149914
  O          -1.15577153149031      2.65259332268945     -1.31126442302798
  C           0.18085818869845     -0.35475219984371      0.07952564711607
  C           1.45758293408998     -1.23361660701057     -0.06140578036387
  C          -0.04770033169555      0.51838086477969     -1.16087003819384
  C          -0.97700309521530     -1.32608292369456      0.33495507239893
  C           2.72926900822254     -0.47646414348443      0.25264411120519
  C          -1.19714359331305      1.48785027058411     -1.01691332915816
  C          -2.35643302563171     -2.99783282961675     -0.57223336910841
  C           4.14328260129351      1.29228467131708     -0.40337582608118
  C          -3.43970594834177      1.72462464645121     -0.31344245457266
  H          -0.20483654686319      0.08123563914127      1.92218761088950
  H           1.41272054688462     -2.05389103600353      0.65345501479893
  H           1.50939008021709     -1.65034863623745     -1.06814452674516
  H           0.84652793866969      1.10187434690726     -1.35556615531185
  H          -0.23767107466510     -0.12007566083550     -2.02553735859116
  H          -2.09874999086149     -3.71950435052848      0.20147345511985
  H          -3.27415998625186     -2.48179464816035     -0.29428995590689
  H          -2.46614667108281     -3.48671140168427     -1.53562699229156
  H           5.04203265320300      0.67696505761366     -0.39429998502714
  H           4.17847634406268      2.01362797256592     -1.21484460563899
  H           4.04363279256177      1.79674213741734      0.55655889110600
  H          -3.18114584721581      2.52443487524553      0.37906361064394
  H          -3.78309296869596      2.16019134837888     -1.25115104958457
  H          -4.20251073809399      1.07987727895666      0.11398846508274
