18
Coordinates from ORCA-job 74172 E -385.052186696221
  O          -1.15659245435960      0.39393930349233      0.05709415576817
  O          -0.01593665876612     -1.50770033753100      0.43928911978956
  C          -2.38042645508248     -0.36795768407046     -0.06141895220154
  C           1.15455443315076      0.60915567289019      0.47877217738575
  C          -3.49654142490343      0.60523251646865     -0.36043689854095
  C          -0.04045815166247     -0.30963511349896      0.31915987509168
  C           2.45360579871358     -0.06485479092280      0.16057996673692
  C           3.38023562844436      0.44747975575801     -0.63717211094743
  H          -2.25475910940832     -1.10588856245296     -0.85488238235024
  H          -2.54551737023861     -0.90860102416536      0.87185266434353
  H           1.00776033174230      1.50903212369323     -0.11835401143349
  H           1.14431902712735      0.92551816154822      1.53019827129665
  H          -3.60138916184658      1.33787465414568      0.44099582880295
  H          -3.30962148526006      1.13853387030301     -1.29352370199795
  H          -4.43980495732818      0.06440419162032     -0.45704610818310
  H           2.60763334685051     -1.03192622219760      0.62625183031710
  H           4.30898277025846     -0.07363614126167     -0.83068395317490
  H           3.24577989256853      1.40606662618119     -1.12644877070273
