15
Coordinates from ORCA-job 74530 E -631.560981367878
  S          -2.12694782498993      0.67229569630485     -0.38831639893820
  C           1.78009707599887      0.30584205174360      0.54471628024401
  C           0.31431491886436      0.16336359604293      0.24734463899352
  C           2.67165875213188     -0.26169913357971     -0.56589198317573
  C          -0.37959788128037     -1.08601016574089      0.23354254267098
  C          -0.51935464230201      1.19896000783779     -0.07320391786848
  C          -1.69863018633664     -0.96574845909532     -0.09065584182389
  H           2.01520815533225      1.36133566386863      0.69880138772564
  H           2.00885404281965     -0.20336889307831      1.48614899334828
  H           3.72822927748252     -0.15074140666345     -0.31349320353596
  H           2.47285952352526     -1.32313447428528     -0.72554791349065
  H           2.48844047348711      0.25494721556644     -1.50978568938547
  H           0.09028571638489     -2.03301006629278      0.46194997185025
  H          -0.26952810326402      2.24598627798249     -0.13852559634549
  H          -2.43971729785382     -1.74465291061099     -0.16550427026881
