21
Coordinates from ORCA-job 74610 E -387.164644399962
  O          -4.27187358159315     -1.19969883125747     -0.34845520170322
  C           2.47159450788781      0.35336511514244      0.06389658065770
  C           1.01614345908805     -0.09090531187612     -0.04127971275490
  C           3.46352383726348     -0.79680247209109     -0.09589037782437
  C           0.03589431052217      1.08120145925286      0.12239380662160
  C           4.91845273167016     -0.34786613175191      0.00964720209771
  C          -1.35874617437442      0.68713815172993      0.02673201208663
  C          -2.50185733000883      0.31178175008508     -0.06006191887310
  C          -3.88455973233181     -0.07035565011234     -0.15322840768536
  H           2.67611256568909      1.11527721765205     -0.69729622704920
  H           2.63522421016769      0.83969578496400      1.03263815064662
  H           0.83901227479035     -0.56854944805200     -1.00843469680428
  H           0.79823576726437     -0.84404979667941      0.72043448088263
  H           3.25749482470975     -1.55695192029532      0.66465836303602
  H           3.29795243147875     -1.28196282061282     -1.06331598126453
  H           0.19717039639379      1.56986089942684      1.08952801688028
  H           0.23766459776773      1.84466357583821     -0.63695261174324
  H           5.11878968131521      0.11182384422465      0.98072224226874
  H           5.60439739870413     -1.18867733451339     -0.10813156434986
  H           5.15959315575054      0.38902038212661     -0.76060197199280
  H          -4.60024733215490      0.76433353679922     -0.03058618313305
