24
Coordinates from ORCA-job 7463 E -389.425641008769
  C           2.21020466302883     -0.34036648280144      0.01596113267333
  C           0.70234149377072     -0.19950407147831      0.00354946661297
  C           2.82586793425531      0.25892324656267      1.28632526989413
  C           2.84698007332044      0.26344895395700     -1.24182982635762
  C           0.08727849233411      1.05456578565351      0.00139978289938
  C          -0.12076507382259     -1.32050755595299     -0.00652469896597
  C          -2.11869139066080      0.04965549827905     -0.02027499631326
  C          -1.29310198153255      1.17603906274978     -0.01031138973825
  C          -1.50684723119544     -1.19949721615987     -0.01830379804033
  C          -3.61669538960869      0.19248158800556     -0.03149209222775
  H           2.42974336953590     -1.41249664510866      0.01588557223181
  H           2.39310588650844     -0.19019186755431      2.18170946973496
  H           3.90558628096729      0.09431404040036      1.30669960669844
  H           2.65214640852396      1.33614873214052      1.33599186626462
  H           3.92689433425571      0.09887693182006     -1.24486358231008
  H           2.42918739677954     -0.18246101194924     -2.14589053432193
  H           2.67403356038473      1.34085552869682     -1.29052746563084
  H           0.69414888026122      1.95187305529272      0.00873532428855
  H           0.32747292596805     -2.30763047128865     -0.00536445956211
  H          -1.74091849902214      2.16358801299076     -0.01184808426818
  H          -2.11988050022389     -2.09333971173367     -0.02609226082714
  H          -3.96944249873711      0.73322589409283      0.85043248334784
  H          -3.95480811637583      0.75037644566204     -0.90831831404893
  H          -4.10664501871522     -0.78133874227656     -0.04486647203363
