18
Coordinates from ORCA-job 7469 E -460.068242056017
  O           3.49070019059440     -0.09082243733956      0.06735687593094
  O          -2.72079355151928      1.16350039773773     -0.09843421712761
  C          -0.66068699679474      0.02004038744287     -0.01843804078708
  C           0.04023820272177     -1.18880133592350      0.03690118966461
  C           0.07007282941668      1.21131716533194     -0.04490796231784
  C          -2.14660175453885      0.09244912995525     -0.05022278072701
  C           1.42349245002641     -1.21492225382620      0.06511975643406
  C           1.45127353704326      1.19963909826479     -0.01721377586338
  C           2.13373373036044     -0.01703313272534      0.03803451697726
  C          -2.93597999277914     -1.19990568701968     -0.02131718728935
  H           3.86732370455891      0.79667184952694      0.04442858073010
  H          -0.49558125178059     -2.12767588609062      0.05852585842177
  H          -0.47397845597292      2.14495900188688     -0.08771356064407
  H           1.96850976949243     -2.14805332841259      0.10792081789833
  H           2.00748581592823      2.13057627335848     -0.03817066588829
  H          -2.71584634892385     -1.77050142320447      0.88381068231637
  H          -3.99640932479741     -0.96249824776834     -0.05056412951139
  H          -2.68097155303575     -1.83117157119454     -0.87558795821743
