24
Coordinates from ORCA-job 74896 E -480.673896383163
  O           0.32276969524459      1.70147414078256      0.38120765574405
  N           3.88180107796614     -0.64336340177365     -0.09358872796848
  C           1.59907125524481     -0.71033230256659      0.81617175014192
  C           0.12620025758600     -0.63167618559404      0.52124152896727
  C           2.46116947756642     -0.58498883646925     -0.44322307131284
  C          -0.49150877702734      0.61010820070413      0.29089684766852
  C          -0.65909869600220     -1.77458485042262      0.43969155545353
  C          -1.85043327227036      0.68396865725746     -0.00493919425999
  C          -2.01800358245678     -1.71523667893909      0.14127636869123
  C          -2.60845485004034     -0.48184953120425     -0.07999770267543
  C          -0.23948804868981      2.98596241929865      0.18574680627620
  H           4.12167078763662     -1.56098350313877      0.26612380179368
  H           4.45953544784143     -0.48681018882234     -0.91100966075074
  H           1.89512607361287      0.07821331236789      1.50946134175984
  H           1.81322306528097     -1.66838184160356      1.29918850997673
  H           2.26724653486502      0.38315117888442     -0.90790968128804
  H           2.14958075828157     -1.35750738578269     -1.16162104622533
  H          -0.19154658226819     -2.73580226411798      0.62026797096362
  H          -2.32592034104481      1.63798809958763     -0.17806370224155
  H          -2.60416440769785     -2.62310525370712      0.08717158988729
  H          -3.66394393385117     -0.41349614032065     -0.31104327411111
  H          -1.02035035039311      3.19672402043163      0.92268860696598
  H           0.57704191267489      3.69302087141662      0.31298956949780
  H          -0.65665050205938      3.09088346373161     -0.82048984295417
