15
Coordinates from ORCA-job 7498 E -2844.958686682571
  Br          3.12212855392237      0.00406591708570      0.86270910269697
  C           0.50446778487277     -0.00017610061025     -0.37952719173024
  C          -0.18026977974191      1.20172724003110     -0.20086336680550
  C          -0.18067682040994     -1.20197774085240     -0.20210677586675
  C           1.94315969157871     -0.00031649687495     -0.75131892456707
  C          -1.52393030730813      1.20295706937015      0.14607566654324
  C          -1.52440154695259     -1.20311230615858      0.14482952238353
  C          -2.19911461603994     -0.00006891769465      0.32019498177162
  H           0.34695550199804      2.13930589240841     -0.32959488642509
  H           0.34616662923760     -2.13962789035710     -0.33189773166403
  H           2.23760965156996      0.88892287227178     -1.29850792534026
  H           2.23833055710997     -0.89183451540303     -1.29438056890736
  H          -2.04514429749329      2.14211949982749      0.27998588928743
  H          -2.04592400444810     -2.14224172438052      0.27775776324939
  H          -3.24719699789551     -0.00000579866315      0.59054044537410
