16
Coordinates from ORCA-job 7501 E -309.587860651966
  C           0.55682013864571     -0.20583739842058     -0.00639114069400
  C          -0.34911117849212     -1.26956775785551      0.05497492664313
  C           0.04038732152763      1.09408989338287     -0.07975408725186
  C          -1.72020749799398     -1.04977213936726      0.04362537963112
  C          -1.32661805588924      1.31605966859525     -0.09121301760296
  C          -2.21526652242758      0.24532602719863     -0.02962611553516
  C           1.99442680770344     -0.49675387595339      0.00863437250900
  C           2.99815453755879      0.37788267555368     -0.04449847295493
  H           0.03235240277403     -2.28221961851553      0.11224369292274
  H           0.71389995519120      1.93944988523780     -0.12810618671859
  H          -2.40076561296846     -1.89034993946022      0.09204692376588
  H          -1.70471176926372      2.32904774480306     -0.14837801402323
  H          -3.28299848285284      0.42253597958052     -0.03880305916146
  H           2.23943117696337     -1.55332991179116      0.07041268720911
  H           4.02660282612049      0.04339821470266     -0.02632680677228
  H           2.83962095340329      1.44708255230919     -0.10745808196648
