23
Coordinates from ORCA-job 75129 E -388.415885804577
  O          -1.44522179559143     -0.50944776873536     -0.27372171082365
  C          -0.14172444492450     -0.18623439966725      0.23005651891488
  C           0.81293254999465     -1.26963695339421     -0.24458441206842
  C           0.30112924274735      1.19653471760852     -0.23723926878606
  C           2.24741534841424     -0.97411033595687      0.20103825621667
  C           1.73280150420405      1.49780995638278      0.21334079457336
  C           2.70362041534525      0.41281973891191     -0.25691215772795
  C          -2.49440438755923      0.07593635180820      0.35290969596986
  C          -3.71754551226762      0.10822946361851     -0.16259269642046
  H          -0.18419355782793     -0.20050678368589      1.32851108600730
  H           0.47720451626530     -2.23828802804701      0.13132608841137
  H           0.76281271727655     -1.31431579888803     -1.33704705519284
  H           0.23817070040290      1.22042264570521     -1.32986757140059
  H          -0.39073268264393      1.95468749278896      0.13790786524282
  H           2.30703499425518     -1.02987879494568      1.29395272795025
  H           2.91956804219527     -1.74372354291071     -0.18511655771872
  H           2.04170808112867      2.47635712255806     -0.16138485162899
  H           1.76413112679032      1.56012922066603      1.30717290180600
  H           3.71082220693300      0.62035375650795      0.11290270832604
  H           2.76008224582129      0.43052576842526     -1.35100648783943
  H          -2.27276792775833      0.49663910275637      1.33159632125065
  H          -4.52651400990119      0.54363431966976      0.40446273915808
  H          -3.93112137329989     -0.30722425117651     -1.13807993422017
