26
Coordinates from ORCA-job 75142 E -689.105469032700
  O          -2.68084072439151      1.56203592961641     -0.18015578998528
  O           2.50950230613611     -1.45746131060130      0.37188962404367
  O           4.69269390194015      0.18415532215939     -0.36375222909228
  O          -3.76599280349888     -0.81959772209473     -0.24690181123143
  C           0.35351370024285     -0.52889026714852      0.17265898575593
  C           2.48612242004470      0.92308375039300      0.39213917091343
  C           1.82751137133772     -0.44514848220176      0.31801274709838
  C          -0.45245468538100      0.61596114034102      0.07094559239010
  C          -0.24564073298164     -1.78518868248518      0.12989624424355
  C          -1.82698996799520      0.51407358151556     -0.07132534410959
  C           3.98285063582355      0.84226972495180      0.67014801306798
  C          -2.41850636512021     -0.76489121121165     -0.10940266683952
  C          -1.61952564546580     -1.89704000642949     -0.00803424138683
  C          -2.13745916274913      2.87058584421634     -0.15368362610684
  H           4.36901582841778     -0.72732866896197     -0.36319273775776
  H          -4.04878164260117     -1.74157064556505     -0.26160723632271
  H           2.31473356253736      1.44104175726912     -0.55754308503803
  H           1.99370001351832      1.51902708237344      1.16749028024226
  H           0.00201798559657      1.59329041239390      0.09802695735037
  H           0.37855701362043     -2.66394495547181      0.20607284205802
  H           4.14914611518542      0.34853569513000      1.63509452317009
  H           4.39476650385281      1.85044977092269      0.73735582284399
  H          -2.08734785304695     -2.87525940434790     -0.03946927284715
  H          -1.62606638114846      3.07080411398834      0.79299011487472
  H          -1.44061483563023      3.02963580290407     -0.98237763958902
  H          -2.98252955824360      3.54645642834429     -0.25743023774604
