16
Coordinates from ORCA-job 7519 E -346.719658684728
  O           1.86613960217988     -0.60137341239597     -0.06783711920629
  C           0.55834474214635     -0.22388518063603     -0.02630481898490
  C           0.12311444267766      1.09819963370540      0.04402114482286
  C          -0.37619612294824     -1.26153949418300     -0.05839843470851
  C          -1.24299524985944      1.36911834311310      0.08150287774680
  C          -1.72973568685771     -0.97597630294101     -0.02043987959813
  C          -2.17441475734156      0.34300855464206      0.04987095288999
  C           2.85786320648492      0.40956758032157     -0.03721357815195
  H           0.82820225819687      1.91563234876370      0.06998048019179
  H          -0.01589151794495     -2.28026698409622     -0.11296581514469
  H          -1.57276407341085      2.39905657250201      0.13608950889464
  H          -2.44499639147814     -1.78842676336988     -0.04583478025090
  H          -3.23319536311051      0.56299767655197      0.07938322964880
  H           2.80246845178814      0.99583479137277      0.88513883496602
  H           3.81433309056845     -0.10633645196095     -0.07891650740831
  H           2.77060636890912      1.08125108861045     -0.89670909570721
