25
Coordinates from ORCA-job 7531 E -464.647800135600
  O           1.97630587404782     -1.35180449673171     -0.71159223344511
  C           2.07561026576286     -0.07968349288755     -0.05084933544887
  C           0.99135384338899      0.03552364089505      1.04963849299980
  C          -0.42972228799044      0.04798345755174      0.55619004679539
  C           3.45824759674065      0.05515692234012      0.58770003774114
  C           1.88233532922403      0.95704744249757     -1.14856240329226
  C          -1.14175118460485      1.24462041840350      0.48012221890699
  C          -1.06370276703901     -1.12456431303585      0.14394784389317
  C          -2.44547485566044      1.27581765378517      0.00024227423260
  C          -2.36604978173068     -1.09964627986500     -0.33712691693268
  C          -3.06236375166321      0.10143623142891     -0.41210528575931
  H           2.21988287998644     -2.04059695391118     -0.08233121277280
  H           1.13827187381902     -0.79969897939047      1.74252269433891
  H           1.18247320545762      0.94785810971319      1.61972883595748
  H           3.59787057055421     -0.69318135701374      1.37346324014609
  H           4.23307170164994     -0.08893571265546     -0.16623664386459
  H           3.59114865229955      1.04008174981331      1.03910995064381
  H           1.90219006511998      1.96611855814923     -0.73365931883496
  H           2.67933618149446      0.86657690687619     -1.88722780717279
  H           0.92715468352635      0.80791875696765     -1.64962109718359
  H          -0.66752352024409      2.16493649983631      0.80076811223535
  H          -0.52664020539816     -2.06240120587000      0.18847118355725
  H          -2.97924753316532      2.21665035621563     -0.04862281436630
  H          -2.83932193763025     -2.02072842782326     -0.65355407925073
  H          -4.07843989794544      0.12055751471063     -0.78507178312398
