28
Coordinates from ORCA-job 75424 E -391.765478743659
  C          -1.57228008093538      0.69123829917729     -0.33962861555242
  C          -0.19078614243917      0.62118354326650      0.30588044344327
  C          -2.57807050177101     -0.27993644775112      0.27340314208738
  C           0.80898496223818      1.59563519496010     -0.30840586470333
  C          -3.95983883723841     -0.21736055322788     -0.37378679882079
  C           2.20831847491043      1.52150760459073      0.32622382151941
  C          -4.95766894549757     -1.19101808252088      0.24790174716031
  C           2.86307201600537      0.23048802266242      0.13925639915351
  C           3.38173084707433     -0.84096473499126     -0.02854496004330
  C           4.01529508638319     -2.13701925164487     -0.22701933142174
  H          -1.96161259508024      1.71287700030797     -0.25924173333688
  H          -1.47979653021800      0.48595221056157     -1.41231550735732
  H          -0.28038196994525      0.82550880929891      1.37932956077150
  H           0.20153117686872     -0.39652021043334      0.22069698534942
  H          -2.18829209430701     -1.30138961020537      0.19455453334103
  H          -2.67232768680556     -0.07464538496544      1.34611972900794
  H           0.89673510314986      1.40377177251439     -1.38180929488950
  H           0.43764977698700      2.61954391791465     -0.20012761554662
  H          -4.34741794508411      0.80408155545800     -0.29581876682461
  H          -3.86449439307719     -0.42439283781753     -1.44504308254495
  H           2.84006230478434      2.30848527604792     -0.09698385598015
  H           2.12994708459104      1.73462402695324      1.39800491920710
  H          -5.09656467222059     -0.98471068085702      1.31226125467586
  H          -5.93522944787222     -1.12568329203397     -0.23409693461719
  H          -4.60905033284034     -2.22283176956858      0.15550956219308
  H           4.23762290484482     -2.61746118139810      0.72881443986431
  H           3.36704971944241     -2.80902612204874     -0.79453983420851
  H           4.95424771805237     -2.03741207424959     -0.77678834192680
