28
Coordinates from ORCA-job 75425 E -391.765251442121
  C           1.14786721285589     -0.58605742999722      0.31983736741436
  C           2.50071823886282     -0.21192395138882     -0.27949877523405
  C           0.45041553122844     -1.71660859854871     -0.42976264953278
  C           3.20367346054343      0.91989477752214      0.46694387871529
  C          -0.92216673873895     -2.08765892635387      0.15763153456741
  C           4.55397586042650      1.29068887307300     -0.14062048735041
  C          -1.89037753406127     -0.99766127758865      0.09321313613753
  C          -3.58402252525315      1.05045287285993     -0.05071392985563
  C          -2.66857585165414     -0.08331738441808      0.02403481984829
  C          -2.85849994948149      2.40311032235675     -0.04097088910949
  H           1.28262753821308     -0.87763541972315      1.36814578700998
  H           0.49633625247108      0.29279551591202      0.32861688286632
  H           3.15184080837525     -1.09397194265591     -0.29286352374610
  H           2.36347456577665      0.07849599171588     -1.32761766303511
  H           0.32138284879357     -1.43603573545814     -1.47921867869068
  H           1.08172314155604     -2.61063467301715     -0.41701812302064
  H           2.55242207819352      1.80022252071681      0.47892738155762
  H           3.34009671119397      0.62939090647280      1.51408963838529
  H          -1.32189521122149     -2.95587390145158     -0.37511541809647
  H          -0.79622937158423     -2.39886912791435      1.20049271167900
  H           5.03333964197360      2.10116002230634      0.41211423242784
  H           5.23509888196410      0.43581188932276     -0.13564302757682
  H           4.44174376182715      1.61595033788034     -1.17808762477699
  H          -4.19143652745722      0.96688949513060     -0.95743423200073
  H          -4.28421760518207      1.00441888088977      0.78935512496198
  H          -2.27262531708852      2.51988291008590      0.87157993385693
  H          -2.17832217726254      2.48209814375539     -0.89002898039076
  H          -3.57700472527007      3.22292590851519     -0.09726742701118
