13
Coordinates from ORCA-job 75644 E -232.387138619900
  O           2.00153568877801      0.48293841172685     -0.14943151507087
  C          -0.28098386270888     -0.19129673417560      0.44229933599381
  C          -1.61948368696898     -0.58109443616704     -0.12600523373811
  C          -1.22845994800921      0.86907073498988     -0.03912010038764
  C           0.96950210586003     -0.48359781724045     -0.34053719452509
  H           2.21734654127559      0.51761587786758      0.78879108942999
  H          -0.17428085630863     -0.29194151071704      1.51848408714791
  H          -1.63369027217580     -1.04508329869015     -1.10419055652272
  H          -2.37552731638369     -0.95279190176269      0.55227994084337
  H          -1.72326543116288      1.48905458856484      0.69623743218362
  H          -0.97047360428739      1.38330629202212     -0.95580533587578
  H           0.74972007114573     -0.46314714676492     -1.40990997631544
  H           1.33814957094609     -1.48923305965339     -0.09931497316307
