7
Coordinates from ORCA-job 760 E -303.073665038110
  O          -0.46636468553337      1.35502479638514      0.00112272884704
  O          -1.56204397642135     -0.60230120100595      0.00008238378989
  O           1.84738790115263     -0.02749440087760      0.00181015468518
  C          -0.54064403465783      0.02287243062080      0.00088835362345
  C           0.82893136271143     -0.66673326648122      0.00138719198412
  H           0.47690304476449      1.60229918940432      0.00169540149614
  H           0.79367138798400     -1.76795554804548      0.00115678557419
