27
Coordinates from ORCA-job 7650 E -577.986321453934
  O          -0.69865928842159     -0.09517857388053     -0.00263092778639
  O          -2.28307809024318     -1.69233636379559     -0.04177832699654
  C          -2.93726567185557      0.63760410245406      0.00941015212819
  C          -4.40196574795329      0.22029801541115     -0.02223843313350
  C           0.31883179702197     -1.12890207711427     -0.02156590814006
  C           1.65734468716413     -0.45879554412723     -0.00352243707547
  C          -1.97645417901339     -0.52712576624320     -0.01518201725520
  C          -5.34227479682136      1.42185173066357      0.00482070558953
  C           2.28854774789716     -0.10742494184086     -1.19489741334811
  C           2.28206985836848     -0.15906759266421      1.20525166762659
  C           3.51981780093236      0.53494928019561     -1.18026394185370
  C           3.51333636736879      0.48318259500183      1.22491914772307
  C           4.13419839084847      0.83195556885218      0.03094249644014
  H          -2.69307063860480      1.28705345208567     -0.83688942181671
  H          -2.71540961088178      1.22968327395686      0.90288328556383
  H          -4.58441829270580     -0.38047427455964     -0.91595637372673
  H          -4.60587418242521     -0.43699411871771      0.82578662362035
  H           0.17527930987587     -1.77241355334286      0.84668253559898
  H           0.18033927190815     -1.73496082314054     -0.91715036693319
  H          -5.19712915039757      2.01912518969022      0.90871343478336
  H          -5.17368449984197      2.07708381501795     -0.85369499192228
  H          -6.38625161527408      1.10494897862134     -0.01938209986810
  H           1.81064857137337     -0.33962482813173     -2.13917553946194
  H           1.79909546985215     -0.43163374540272      2.13606295545687
  H           4.00140003849759      0.80078521681347     -2.11261421125022
  H           3.98985604804594      0.70858384148665      2.17043024307753
  H           5.09544540528515      1.32967914271054      0.04424416295970
