30
Coordinates from ORCA-job 7651 E -617.290750089946
  O           0.57134289508258      0.56752309778577     -0.34752917152717
  O           2.18432021609229      1.66391305820345      0.77314491437703
  C           3.49250771565622     -0.97501548661405     -0.50963389299038
  C           2.78993563318825      0.26918797885383     -1.10378041929672
  C           4.47672111246585     -0.60831407598864      0.60103139414555
  C           2.48731735679656     -2.02701271723000     -0.03793994857832
  C           1.85215707172673      0.92872618765096     -0.12393961869788
  C          -0.40476473422557      1.07764616024865      0.59375966409975
  C          -1.72600846409337      0.44869304108732      0.27595637095204
  C          -2.73867599138164      1.18626608007875     -0.33001934904857
  C          -1.95496940677910     -0.89361549539621      0.57781231563958
  C          -3.96195991802267      0.59682109831127     -0.62938293528048
  C          -3.17205774906319     -1.48704060392328      0.27601389532321
  C          -4.17979664171734     -0.74118602997007     -0.32801044037571
  H           4.06483713057897     -1.40623356065881     -1.33768136531854
  H           3.54253576695400      1.00713321040967     -1.38495019695734
  H           2.22968258350825     -0.01969997980125     -1.99287291365349
  H           3.96404541830745     -0.15151905467827      1.44868045553329
  H           4.99749095776707     -1.49989892399896      0.95673513713205
  H           5.22579931981203      0.10307230224477      0.24769367372846
  H           1.92183930862122     -1.67049116237970      0.82663255968797
  H           1.77039080110089     -2.27922336498852     -0.82136238862184
  H           3.00341282831458     -2.94126416059347      0.26102884293083
  H          -0.06847764537949      0.83302884842384      1.60211830817619
  H          -0.44252600712230      2.16362245117612      0.50749959513544
  H          -2.56841086368006      2.22917421134705     -0.56912700008436
  H          -1.17080503058508     -1.47476330816880      1.04800109101988
  H          -4.74239665015121      1.18224472750579     -1.09843921697854
  H          -3.33842112626457     -2.52972398350839      0.51490445610495
  H          -5.13121088750737     -1.20244454542883     -0.56015681657687
