23
Coordinates from ORCA-job 76751 E -405.464297216986
  N           4.24981902953007     -0.09059403175950     -0.49550812080567
  C           1.98928402782401     -0.08965961828761      0.66577534334220
  C           0.50489958984730     -0.05863707615937      0.42303301937872
  C           2.79886444434753     -0.06311589127250     -0.64522642946212
  C          -0.18149211304044      1.15017537438807      0.31197879117866
  C          -0.21875950298709     -1.23581653022456      0.23550721929876
  C          -2.26470579984786      0.00320543389359     -0.15612563890704
  C          -1.54043504291621      1.18065124229256      0.02750437782398
  C          -1.57773651111665     -1.20558013273925     -0.04901146751365
  C          -3.74447338122086      0.03521211521295     -0.42868207729662
  H           4.57120358535147      0.70346417739655      0.04704637646715
  H           4.54531648129974     -0.92536249081862     -0.00151416982761
  H           2.28654098877829      0.76689102971479      1.27847153523039
  H           2.25852552359917     -0.99055307276140      1.22555148717195
  H           2.52995011956217      0.83271041183266     -1.21100303668578
  H           2.50239185605271     -0.91450245661212     -1.26343511859814
  H           0.35551788614011      2.08183315073904      0.45111406845566
  H           0.28872526175188     -2.19080261672422      0.31416239641749
  H          -2.04760449704398      2.13548275906227     -0.05208066729759
  H          -2.11439176857319     -2.13704090807780     -0.18909446535951
  H          -4.31592971419513      0.01995304852150      0.50417243457960
  H          -4.02908283261376      0.93848078495370     -0.97034904386078
  H          -4.05858663052928     -0.82783270257069     -1.01750481373004
