31
Coordinates from ORCA-job 77039 E -634.477057188668
  O          -2.07848186376584      1.66410190665294     -0.55762235728693
  O          -3.17501390824927     -0.59607962525759      0.76982663143189
  N           4.55600494780761      0.07846646707084     -0.21966947881785
  C           2.27028169059664     -0.55806520666874     -0.88107758417193
  C           0.82038826073709     -0.58021474857143     -0.47582842335187
  C           3.16665208749481      0.03475937450927      0.20764032484322
  C           0.00734254371154      0.53075241083905     -0.69571156517855
  C           0.26945004214606     -1.68120833534529      0.17714737039528
  C          -1.31970675335747      0.55081192773617     -0.28705566355182
  C          -1.86810518762052     -0.57377849736711      0.34444357998011
  C          -1.06054187049981     -1.67891210957219      0.57835907709198
  C           5.45344935427935      0.61311748849329      0.79246445860932
  C          -2.48089687317590      2.41430853565207      0.59177245172550
  C          -4.14776414634744     -0.63613772688148     -0.27790416679629
  H           4.85720597627326     -0.85103136570898     -0.48990155493846
  H           2.60429867444069     -1.57697692409393     -1.10108802059112
  H           2.40382369076955      0.02566861958965     -1.79416729492667
  H           3.02522365125915     -0.53454243219256      1.14288970104196
  H           2.84429502095452      1.05889198902353      0.42033017191376
  H           0.39683722273353      1.41064781348757     -1.19375996587724
  H           0.88171377829009     -2.55549740812492      0.36341695716169
  H          -1.49797002203574     -2.53660294841843      1.07306111912778
  H           5.39621415553779      0.09002719997400      1.76116891843497
  H           6.48288720378863      0.56290122337937      0.43511957530722
  H           5.21415030013887      1.66411575816560      0.97143523739782
  H          -3.08514543782434      1.80839330580099      1.26890994275325
  H          -1.60300389685009      2.79217697902977      1.12417024648491
  H          -3.06764710075781      3.25191170118293      0.21951447062875
  H          -5.12124075930545     -0.64788679000282      0.20869537293155
  H          -4.06700422389730      0.23778975909613     -0.92665754555987
  H          -4.02670655727222     -1.54566134147771     -0.87375898621235
