20
Coordinates from ORCA-job 7707 E -424.129362218500
  O           3.98170761914455      0.00242499832442      0.50380886876749
  C           1.12441450109731     -0.00090228889616      0.56744622136219
  C          -0.36066884425688     -0.00105382149224      0.31726664641347
  C           1.92105862981508      0.01216608804773     -0.73737234583706
  C          -1.06331004058140      1.19667865838942      0.18868242439911
  C          -1.05944980459317     -1.19856540356293      0.16731347485760
  C          -2.42537704986205      1.20005225046019     -0.08565963390592
  C          -2.42150798375892     -1.20143156980267     -0.10707737200597
  C          -3.10928517787117     -0.00054689155385     -0.23610641064507
  C           3.41408347779404      0.01217229358663     -0.55786786101919
  H           1.40807777334092      0.86752946002524      1.16444745039096
  H           1.41099283431751     -0.87899648690981      1.14869407502413
  H           1.66650432499240     -0.85083765457529     -1.36553529511677
  H           1.66433691860408      0.88586270905628     -1.34963487344008
  H          -0.53802952516442      2.13702970584750      0.31171662355971
  H          -0.53113459320550     -2.13926044510940      0.27356164473904
  H          -2.95397657952418      2.14061777300636     -0.17670510622844
  H          -2.94708056562572     -2.14192065815014     -0.21489677304372
  H          -4.17110289797839     -0.00038047105311     -0.44617889929317
  H           3.99514498331591      0.02215275436183     -1.50562985897831
