34
Coordinates from ORCA-job 77224 E -544.665991488428
  O           1.46986517407680     -1.11304268468393     -0.14181823093587
  O           1.30911272746048      1.12737755487422      0.24381751128762
  C          -1.33105087325487     -0.26308654502333      0.03480980495640
  C          -0.37384496258777     -0.00825831521428     -1.12616981752616
  C          -2.78909514360121     -0.33739613601600     -0.41036156252556
  C           1.08678710203843      0.09740288253954     -0.71028906467822
  C          -3.76048543942347     -0.59156078990213      0.74028511376811
  C          -5.21733317058790     -0.66507745235804      0.29063117192795
  C           2.86284562662108     -1.22736836890923      0.13559929077628
  C           1.41557624860140      2.43282964489664     -0.29701213035680
  C           3.12945437255050     -2.62609546047993      0.64694274994998
  C           1.83050099783831      3.37710551312213      0.81152903275259
  H          -1.04904186499174     -1.19387894065577      0.53248048489704
  H          -1.21258383009083      0.53044750634638      0.77752313654461
  H          -0.44961817828502     -0.81120636512082     -1.86495556710501
  H          -0.65043690937161      0.91622703663737     -1.64243320211970
  H          -3.06610226197524      0.59609916457211     -0.91517014943067
  H          -2.90287625958131     -1.13060229844570     -1.15876836170425
  H           1.71754008644162      0.31306865190309     -1.59202755613634
  H          -3.48382921716246     -1.52418321087063      1.24302508931640
  H          -3.64637300512744      0.20079962941869      1.48763467668917
  H          -5.88830412856740     -0.84760700693456      1.13250956483144
  H          -5.52877016165745      0.26752288776204     -0.18710790316257
  H          -5.36476737146182     -1.47071605071158     -0.43328043241476
  H           3.43097809608875     -1.03242067632377     -0.78499958103677
  H           3.15466641947200     -0.47661943620490      0.87451830573132
  H           2.15620882931990      2.43913931446305     -1.10950772901485
  H           0.45713305438389      2.75138348244699     -0.72719461057332
  H           2.56280702079845     -2.81282713507884      1.56037822472703
  H           2.84029818141685     -3.37200123830797     -0.09510445623053
  H           4.19131835460119     -2.75044182088632      0.86856525219039
  H           1.09126249687381      3.37287122363581      1.61377443661609
  H           2.79238677758141      3.07778428613611      1.23038065167350
  H           1.91967521156268      4.39563815337356      0.42847485631546
