28
Coordinates from ORCA-job 77225 E -466.058506037424
  O          -1.28019194323821      0.45666768394497      0.08218747209640
  O           0.41708655516191     -1.02778399967730     -0.25421421076422
  C           0.86763732006615      1.13530593359121      0.80048396487688
  C          -0.09402820541730     -0.03111889703995      0.62106724477057
  C           1.23599462778044      1.84224040746515     -0.50171018893213
  C           2.22100710950993      2.98695242603290     -0.28001440912194
  C          -2.34237197621213     -0.49139539606924      0.02358435771221
  C           1.31649677718658     -1.94585331415639      0.34297297154846
  C          -3.57913037608999      0.21538593557299     -0.48619282681511
  C           1.63195315109813     -3.03052742802509     -0.66529006435812
  H           0.40654296083714      1.84074665548481      1.49792694507060
  H           1.77219459636040      0.76057462058725      1.28988515652560
  H          -0.29551271589877     -0.51019602285830      1.59655385152263
  H           1.66124726228453      1.11271776687238     -1.19478789850831
  H           0.32523686707757      2.21857106743508     -0.97139771733234
  H           1.80410943192328      3.74373960921745      0.38976165602323
  H           3.15185834343379      2.62820938676726      0.16787133566787
  H           2.47446577891787      3.48020966621418     -1.22052046067127
  H          -2.06284639959101     -1.31812754437347     -0.63460667138565
  H          -2.51341034784584     -0.90358412682420      1.02814789062884
  H           2.23849560917552     -1.43670228634003      0.65264525456586
  H           0.86207815496433     -2.37651834200558      1.24668236063861
  H          -3.85627884241249      1.03767655960445      0.17533819566412
  H          -3.40281807204319      0.62136661707392     -1.48338952503052
  H          -4.41655445468178     -0.48304136564144     -0.54149528093175
  H           2.32536492786707     -3.75667845762133     -0.23637328152832
  H           0.72193147611562     -3.55313424823310     -0.96362436892541
  H           2.08898138367044     -2.60140790699857     -1.55805875300676
