30
Coordinates from ORCA-job 77243 E -618.055956980744
  C           0.19451816390603     -0.15568044391882     -0.00107282537371
  C           0.71489958003490      1.16193398284848     -0.00607919013873
  C          -1.24270527909032     -0.34927327043459     -0.00788719632774
  C           2.48148483358485     -1.02664071177130      0.01686068984173
  C          -2.09223701635016      0.79008668980514     -0.01942813065035
  C           1.11563298760528     -1.22008726392379      0.01041185307921
  C           2.99662936139548      0.29507524685267      0.01183329216709
  C           2.11014602725693      1.34857239063659      0.00057513791404
  C          -0.17760378469186      2.27819203341571     -0.01772723042256
  C          -1.52000922202015      2.10040478227665     -0.02411687446928
  C          -1.84615328362755     -1.62275541902070     -0.00360008217160
  C          -3.49054881282264      0.61449915192260     -0.02611342306849
  C           3.41439676161851     -2.20579167781790      0.02911970652078
  C           4.47964961343998      0.53982034129038      0.01861955573810
  C          -3.21527267606783     -1.76929938045436     -0.01030803971440
  C          -4.04904412622912     -0.64162339040366     -0.02167814297354
  H           0.75112277010177     -2.23822846881057      0.01443638570152
  H           2.49122937040076      2.36402670459986     -0.00339083455984
  H           0.24585488523229      3.27555969879474     -0.02135040805835
  H          -2.18878775568222      2.95275456348007     -0.03294109079877
  H          -1.22932779488181     -2.50992619929410      0.00513622296307
  H          -4.12287090949060      1.49445926962018     -0.03488362053887
  H           4.06180931090961     -2.19564564398389      0.91029215796314
  H           2.85919647810766     -3.14329726635520      0.03097502636283
  H           4.07245926172053     -2.20542812788763     -0.84418449578822
  H           4.95431069993380      0.10178175427867      0.90089812503629
  H           4.96385033072916      0.09230362183898     -0.85368378847588
  H           4.69849814875723      1.60718483345368      0.01399184701604
  H          -3.64933765026731     -2.76109542303914     -0.00677203143371
  H          -5.12478527351318     -0.76191637799876     -0.02691359533980
