17
Coordinates from ORCA-job 7725 E -384.834679662354
  O          -3.27322597084695     -0.49551307454252      0.05426045898115
  C           1.78740706023510     -0.09110806960810     -0.00006823940279
  C           1.21374998840961      1.17709591171769     -0.06610654121596
  C           0.94085010180835     -1.20577243961682      0.06658137573926
  C          -0.99925931925649      0.21777833664664      0.00076675546519
  C          -0.16563850398022      1.33133981616790     -0.06577895627882
  C          -0.43210278924614     -1.05877892448463      0.06727278162268
  C           3.27918661329678     -0.27135528138218      0.00051178542027
  C          -2.46135710897810      0.39902266329704      0.00004691584351
  H           1.85380774549145      2.04926085219579     -0.11817660826230
  H           1.37516378358182     -2.19735729045429      0.11826535469350
  H          -0.60239594820485      2.32229685548295     -0.11749013676936
  H          -1.08912876603866     -1.91705804473640      0.11860245288577
  H           3.61046506775878     -0.78325606276555      0.90727656608348
  H           3.59925188581135     -0.88116658168029     -0.84783403385834
  H           3.79684654108799      0.68575122196304     -0.05619863552069
  H          -2.79167438092983      1.45780811179970     -0.05601929542654
