17
Coordinates from ORCA-job 774 E -360.141648318499
  N          -0.94714341290807      0.90234710184908     -0.41372488222545
  N           3.50962300476267      0.13235707599452     -0.08635025627453
  N          -2.39639775731567     -0.65691900272236      0.17376848476391
  C           1.19185551644456      0.20084379123151      0.72284563849971
  C          -0.25256172714202      0.03471412534039      0.40415314498694
  C           2.11705302319919     -0.11461154856394     -0.45753469466111
  C          -1.17443241388047     -0.91803709607473      0.74797080943698
  C          -2.22727790714775      0.44212680799332     -0.51507422517646
  H          -0.57882292771281      1.73756574539861     -0.83578022022621
  H           3.80195960031370     -0.50781982176687      0.64411747638547
  H           4.12642745580917     -0.01901121428221     -0.87559826238077
  H           1.40469623436755      1.21793864449945      1.06624900930747
  H           1.43443853583905     -0.46463957467173      1.55544692371203
  H           1.87380277971151      0.54485658476739     -1.29532713336866
  H           1.91518625164109     -1.14069631818788     -0.79534951875362
  H          -1.02108758871201     -1.77623486427924      1.38233563402574
  H          -2.97964766726969      0.94918456347468     -1.09793692805143
