17
Coordinates from ORCA-job 7749 E -346.980036321614
  O           0.72460760433274     -0.44268175098529     -0.00125895879129
  O          -0.61634045997240      1.36384416440250      0.01473620442924
  C          -1.59759440526881     -0.84759671646743      0.00112602281407
  C           1.88138366235319      0.42238397132402      0.00119634355114
  C          -0.47757332432044      0.16689472033160      0.00597582759512
  C          -2.98002920877625     -0.21158154089728      0.01449184258155
  C           3.10991760703166     -0.45720154189538     -0.00969813054762
  H          -1.45892791256227     -1.48470952067365     -0.87691344350994
  H          -1.45033459510277     -1.50318083754859      0.86396872624592
  H           1.83448782673036      1.07158155267871     -0.87459664115281
  H           1.84060294100605      1.05838758385947      0.88692040089631
  H          -3.11730918131334      0.40763621174035      0.90104379195966
  H          -3.12466270641305      0.42854454460830     -0.85585983069809
  H          -3.75232368131515     -0.98200732236884      0.00866294536237
  H           3.13597237797303     -1.10196759503230      0.86991752045661
  H           3.13071753336740     -1.08743780948387     -0.89991524440728
  H           4.00774692225007      0.16372388640768     -0.00733737678495
