23
Coordinates from ORCA-job 7761 E -574.846806892031
  O           2.17333653499064     -0.61893115524331      0.25275800751055
  O          -2.06501187999829     -0.63976417470965      0.21677357901967
  O           0.62274504935448      0.96137134781124     -0.15921675674484
  O          -1.73477947198655      0.23652131275411      2.26560731394213
  C           0.04957393760856     -0.96608105578070      1.18938847372361
  C           3.14556267201850      0.13334589835364     -0.51269047388156
  C          -3.38105985563219     -0.04211056766537      0.16710864162587
  C           0.94790090496677     -0.07923842681993      0.34795607135874
  C          -1.33820416554507     -0.38086028952170      1.31229316227659
  C           4.44242826797834     -0.64024249047116     -0.48740741570509
  C          -3.99330429249409     -0.39881928246423     -1.16672075567848
  H           0.01476861065830     -1.95547845164310      0.73119713176805
  H           0.48443844927689     -1.06336851484531      2.18349979174771
  H           2.76292147578003      0.26296193490192     -1.52595163385379
  H           3.24741389824614      1.12288075049716     -0.06518905239357
  H          -3.96747018837921     -0.42225348256657      1.00500465292903
  H          -3.27231155263754      1.03545313152488      0.29500054018951
  H           4.80306795698711     -0.76462566337668      0.53449049820736
  H           4.31698412284405     -1.62809270907451     -0.93272499116697
  H           5.20193215922811     -0.10097752424768     -1.05640989348600
  H          -4.08455727338863     -1.48019075181388     -1.27897591590496
  H          -4.99024465848583      0.03933139224219     -1.24205424503156
  H          -3.38577870139051     -0.01502822784134     -1.98717473045202
