20
Coordinates from ORCA-job 7762 E -386.283523527244
  O           1.19344730167410      0.42930313335140      0.02416176649197
  O           0.08842062289323     -1.51916899994423     -0.18365509511749
  C          -2.46113523893943     -0.24539711500890     -0.05430857263791
  C          -1.16015644740544      0.54084962530879      0.04394818212885
  C          -3.68757136384002      0.65659439707662      0.05008110732395
  C           0.07598276946140     -0.32118263888530     -0.05391908698060
  C           2.44868945773122     -0.28068019985392     -0.05493282417862
  C           3.55827671208411      0.73937363990241      0.05170629559125
  H          -2.47727245069477     -0.79507098053143     -0.99797587073261
  H          -2.48242459009148     -1.00263260933955      0.73237935851370
  H          -1.09843776932766      1.30068413088639     -0.74137739995235
  H          -1.10465238582893      1.09307081627059      0.98746520974213
  H          -3.70611303405911      1.19263161684640      1.00256681811394
  H          -3.70054774183830      1.40303662030703     -0.74838296381832
  H          -4.60944839659705      0.07711834175468     -0.02244512708507
  H           2.48744983727781     -1.01405707649908      0.75215437158750
  H           2.48319737958907     -0.82636764226316     -0.99925191067009
  H           3.50428394169833      1.27703892327531      0.99940968592541
  H           4.52638194805945      0.23806837001691     -0.00424751127967
  H           3.50017844815349      1.46552264732904     -0.76037043296596
