22
Coordinates from ORCA-job 7765 E -387.451464899749
  O          -0.94248729075807      0.07065433539051     -0.34952356895425
  O           1.26846953795829     -0.48330026137010     -0.21005368691535
  C          -0.00964737587721     -0.84939014391218      0.20037755960746
  C          -0.26649127195949     -2.26156224371142     -0.28329837679832
  C          -2.14510868604833      0.21736849237670      0.38664800805222
  C           1.72588633544035      0.76138987373562      0.31255515411909
  C          -2.97271981861609      1.30664058772057     -0.26191423641653
  C           3.14890220389730      0.97628025365562     -0.15414825990226
  H          -0.08108557093660     -0.78865769639887      1.30126169347860
  H          -1.27315930038068     -2.58143974322844     -0.01190861649863
  H          -0.16468944232479     -2.29186510630301     -1.36821277900070
  H           0.45111279258933     -2.95077558533047      0.16261135515623
  H          -2.70604898185463     -0.72659858527141      0.40111907584996
  H          -1.91313121772302      0.47562179509119      1.42963164609594
  H           1.07347973432165      1.56787221717504     -0.03273670230275
  H           1.67463819076843      0.73271805270578      1.41018236793226
  H          -2.42715401209643      2.25143742276955     -0.26553138724838
  H          -3.20933347177445      1.04373791402593     -1.29379567772929
  H          -3.90810039889380      1.44736399990179      0.28334507480769
  H           3.79744134759093      0.17159157397048      0.19573400710263
  H           3.19275658685215      1.00320000535189     -1.24387776097659
  H           3.53269910982517      1.92342484165523      0.23023011054096
