19
Coordinates from ORCA-job 7768 E -365.205289849310
  O          -2.47266306275067      0.02110549663643     -0.38546003137116
  N          -0.64959709730532     -1.24581642725137     -0.01138761765040
  C           1.89100314079443      0.74422810761006     -0.03013074837497
  C           1.78034730124225     -0.73801989469770     -0.38706820993489
  C           0.62352434810207      1.57053690390103     -0.25267812071352
  C           0.71943700306214     -1.49836792018465      0.41094856535470
  C          -0.58539810354481      1.13435727852116      0.59105070906271
  C          -1.32772026988743     -0.06445587276971      0.02859952137895
  H          -1.17374794958215     -2.00461715498788     -0.41794025064205
  H           2.18317330712263      0.82924118934645      1.02325478575407
  H           2.70660938676026      1.18606357425411     -0.60896171117551
  H           1.56511136836604     -0.85641329481541     -1.45344342548442
  H           2.74825198990299     -1.21388639174128     -0.20350944185866
  H           0.84787135014681      2.61193114208257     -0.00998619313225
  H           0.34570416275076      1.55555775245126     -1.31114417605941
  H           0.83361150893024     -1.27801287432000      1.47842348254977
  H           0.88096695125765     -2.57048240485947      0.29888001965174
  H          -0.26106845020629      0.92264301449704      1.61574707301215
  H          -1.32120788516161      1.93451177632737      0.63754276963316
