32
Coordinates from ORCA-job 7775 E -543.499962851193
  O           1.42342333019542      0.17189960346754     -0.21933511695500
  O           0.29250387615345     -1.66869911699512      0.40739131999494
  C          -2.23618912768224     -0.38398637767979      0.10055999462235
  C          -3.45527583500284      0.49832278870590     -0.15377927624674
  C           3.81218203145116      0.43072590886775     -0.30209221492144
  C          -0.92641706284279      0.33059888100970     -0.20285792743166
  C          -4.77851211774959     -0.20226148457397      0.14628630827894
  C           2.66832678465264     -0.53158786859550     -0.03150569451764
  C           3.80395660837699      1.60498321126060      0.67636969012084
  C           5.13772877375580     -0.33068253725871     -0.24986770675796
  C           0.29671610253138     -0.52183952147109      0.03758747361303
  C          -5.99542499019756      0.68267067101358     -0.10941369387316
  H          -2.23098927077670     -0.72008508281393      1.14067466751805
  H          -2.30043594566255     -1.29138177558718     -0.50524291335129
  H          -3.38287929462709      1.40739689652288      0.45492769555745
  H          -3.45349526844549      0.83310713598615     -1.19785223198853
  H           3.67689872738226      0.82235075338163     -1.31621005280813
  H          -0.89394560272838      0.66727486915407     -1.24387952887045
  H          -0.82284580057399      1.23818444359692      0.39967413640561
  H          -4.84998018548734     -1.10972133645625     -0.46226037986721
  H          -4.77927344644792     -0.53579102794674      1.18920203696012
  H           2.70656953159864     -0.91779020576445      0.99004530857734
  H           2.69352909423868     -1.38532878568126     -0.71136864056540
  H           3.94556799094365      1.25198176789308      1.70209144417887
  H           4.61144098646232      2.30399313781812      0.45007564917194
  H           2.86054309658565      2.14914126995230      0.63328015720516
  H           5.30496548563407     -0.75571414924580      0.74367742751971
  H           5.16110726902725     -1.14874051902959     -0.97300748305382
  H           5.97367170063700      0.33556286850092     -0.46907846925844
  H          -5.96490713456896      1.58220049623466      0.51073988269154
  H          -6.03562296239820      1.00352891880749     -1.15353343263606
  H          -6.92606034443472      0.15687516692610      0.11265357068701
