23
Coordinates from ORCA-job 77844 E -500.545426171567
  O          -1.73975557003434      1.83036070807862      0.03294460882160
  O           2.68363140494892      0.09424424591182     -0.06494711956364
  C          -0.48837442456254     -1.64080804059278      0.00854551908381
  C          -0.93724205871732      0.72881128096180      0.01612186209299
  C           1.33111993889652     -0.05603027699121     -0.03424676762714
  C           0.86876272693113     -1.37839501278290     -0.02246351039595
  C          -1.40358809632722     -0.57811748779484      0.02806286113318
  C           0.43556738592044      1.00124604690468     -0.01513681511098
  C          -0.99757019687311     -3.05742887466141      0.02224258158706
  C          -3.14265194362824      1.63742136528245      0.06417942552137
  C           3.21215752728559      1.40879139469393     -0.07757428963351
  H           1.59474772367956     -2.18034446414165     -0.03807692774376
  H          -2.46173873754819     -0.79343405519170      0.05216263097155
  H           0.75048103617546      2.03311998766988     -0.02347210748028
  H          -1.59150969627024     -3.25207432475871      0.91882566373637
  H          -1.64055185546209     -3.25155288837655     -0.83991948181917
  H          -0.17680220255538     -3.77380068785389     -0.00075056022732
  H          -3.45115872117134      1.09623416169529      0.96373863521733
  H          -3.58258866369417      2.63211269627109      0.07253862720118
  H          -3.49047938191388      1.09383001553620     -0.81944399030389
  H           2.92324841022296      1.96311998635176      0.82045814668851
  H           4.29379136514618      1.29769209661730     -0.10150498866339
  H           2.88374002955130      1.96190812717082     -0.96269200348594
