18
Coordinates from ORCA-job 77907 E -347.912837143283
  O           0.80540858415179      0.94952630154100      0.40401400879947
  C          -1.14911987565012     -0.49452989787468      0.50963169650735
  C          -2.07838753455435      0.26889259060960     -0.44591878466572
  C           0.29407701227156     -0.30664254569312      0.21763915510836
  C          -3.55198523454153      0.06472956687020     -0.10860366124795
  C           1.27637846148029     -1.12882037685819     -0.23583198475364
  C           2.46790436931683     -0.33806689060599     -0.33624337901220
  C           2.12584080352492      0.90973923697355      0.06271129364269
  H          -1.35720445254163     -0.17982565413662      1.53837833890669
  H          -1.36605202881135     -1.56430735160776      0.45859404104734
  H          -1.82978405866795      1.33219425795168     -0.40675774612351
  H          -1.87838213818514     -0.05910145496557     -1.46986741314733
  H          -3.77594032762370      0.41178968614450      0.90329774912806
  H          -4.19603929991936      0.61298526982260     -0.79848232014164
  H          -3.82739455590381     -0.99165921301287     -0.16422210314001
  H           1.16689376927549     -2.17464143513524     -0.46997122871629
  H           3.44273138799767     -0.66156844185432     -0.66031307042286
  H           2.66736611838041      1.83370035183123      0.16117240823121
