31
Coordinates from ORCA-job 7793 E -468.227934606239
  O          -3.81599912364393      1.78736045991267     -0.28142734698696
  C          -1.11780308484926     -0.76904463634200      0.37455217819668
  C          -0.07589175403935     -1.37589544182040     -0.57491187100015
  C          -2.09737765070090      0.14305115869368     -0.37236234998713
  C           0.81164544724758     -0.36999195104095     -1.32948536060960
  C          -1.83563885413774     -1.88730317980789      1.13495501187728
  C          -3.10243459714127      0.84560505683714      0.52088312267111
  C           1.53225293383884      0.58998678315845     -0.42622785434862
  C           2.75458288736016      0.45053582561243      0.09139486407325
  C           3.33841817327693      1.49516303039076      1.00160601476843
  C           3.65034193913330     -0.72882549406432     -0.16393168102446
  H          -4.49362701220657      2.20469163885223      0.25986620759301
  H          -0.57943651310440     -0.15676684014802      1.10740594594521
  H           0.57486444744701     -2.03332395830177      0.00980761302395
  H          -0.58914194394879     -2.01325472377922     -1.30419938883469
  H          -1.54809630221446      0.92008808992738     -0.90822498269339
  H          -2.63795873045391     -0.43610895870886     -1.12875080535599
  H           1.52181163907221     -0.93392597881052     -1.93726873985601
  H           0.20055299064803      0.19784579328954     -2.03539924645838
  H          -2.50027081598663     -1.49905158597603      1.90806209206296
  H          -2.43666873011813     -2.49611861031236      0.45302740273177
  H          -1.11529127919955     -2.54764602172828      1.62258885448477
  H          -2.57586056246515      1.35671713373844      1.33872664398185
  H          -3.79698648180510      0.12632193092933      0.96825266339584
  H           0.97766393563830      1.48341441007406     -0.15179849256941
  H           3.58802030962843      1.06846299590562      1.97872099256183
  H           4.27069987776228      1.89576736045345      0.58993784958241
  H           2.64935934330544      2.32554789340954      1.15710482017354
  H           3.88105277683736     -1.24222490194674      0.77508706154726
  H           3.21332126553727     -1.45736761119117     -0.84365038585512
  H           4.60797346928201     -0.40236966720619     -0.58197883309125
