20
Coordinates from ORCA-job 780 E -610.529925550048
  O          -0.66947126482208      2.18333690109376      0.13069722138844
  O           3.07097458270948     -1.87605120256699      0.06273984822275
  O          -3.76343664822407     -0.19565432071499      0.15636833649915
  O          -2.17570167071141     -0.49124870625446     -1.36019286142827
  C          -0.05621542162908     -0.06318384075833      0.50849638811498
  C          -1.46654809752855     -0.31738255973457      0.94739138019810
  C           0.30509103461880      1.21791175339129      0.08382104403236
  C           0.89379776582465     -1.07244575347322      0.48868926026915
  C           2.19152995751261     -0.82576331626401      0.05172542832619
  C           1.59624824860146      1.46989164454925     -0.35121935905936
  C           2.54154449753575      0.44926829425144     -0.37066331523663
  C          -2.46119446049149     -0.33212975866956     -0.21186417808437
  H          -0.35398269834731      2.98562381959917     -0.29816212916487
  H           3.92149838625659     -1.58796059180646     -0.28597935873939
  H          -3.83115859550175     -0.03199353228483      1.10560687702474
  H          -1.53841291860560     -1.29022104346266      1.44140948065648
  H          -1.77893331974444      0.43857677422062      1.67335419481070
  H           0.63247708688552     -2.07435707965448      0.80393485176228
  H           1.87298221036520      2.46510806218577     -0.68027899656980
  H           3.54865132529571      0.65500045635326     -0.71503811302264
