44
Coordinates from ORCA-job 7800 E -700.712924562972
  O          -5.90078941233336     -0.49075181344444      0.01288653097709
  O          -4.89934922976174      1.52045966427213     -0.09886278924329
  C           2.81410392962812      0.40202331468412     -0.03293326663429
  C           1.54293608990960     -0.44168961020968      0.01914075566550
  C           4.09641599742186     -0.42460241900445      0.01996824516197
  C           0.26109628021135      0.38548310286789     -0.03371301156927
  C           5.36764713455852      0.41912019351727     -0.03176815053642
  C          -1.00981629891659     -0.45842320162856      0.01835224531942
  C           6.65015119228265     -0.40706734742934      0.02102732864196
  C          -2.28704674407941      0.37552568871601     -0.03440330920338
  C           7.92241836120033      0.43601520754299     -0.03115535099359
  C          -3.54455871318704     -0.48123417808743      0.01839347138642
  C           9.19839184005973     -0.40009045511709      0.02279794881361
  C          -4.82376934809808      0.31971880873439     -0.03057316191851
  C          -7.19124324076656      0.15635514129785     -0.02625605140287
  C          -8.24621771230655     -0.92385153741510      0.03146261305452
  H           2.81020748727702      1.00531383158927     -0.94793074532106
  H           2.80886209160877      1.11514576489293      0.79930124613176
  H           1.54801594043027     -1.15473746533103     -0.81329065671015
  H           1.54677283081830     -1.04497090229426      0.93425688064329
  H           4.10008362809029     -1.02810562118479      0.93491873573863
  H           4.10157931336750     -1.13763331464681     -0.81244059784653
  H           0.25517758975756      1.09833693610287      0.79849134929898
  H           0.25645383551581      0.98875760025664     -0.94847666074736
  H           5.36383203480779      1.02267416359800     -0.94666951794797
  H           5.36231582013147      1.13204312254102      0.80071266814985
  H          -1.00415442058514     -1.17149354392333     -0.81428519620931
  H          -1.00510615971522     -1.06225519773084      0.93330875586482
  H           6.65483616025960     -1.01056175708812      0.93619190036181
  H           6.65597783512309     -1.12048181089858     -0.81128960898287
  H          -2.30085795741815      1.08768485253814      0.79459231688546
  H          -2.29982417727138      0.97909783834376     -0.94555947021842
  H           7.91719726030536      1.03805056184175     -0.94603197221082
  H           7.91568321644065      1.14846040670537      0.80061512102435
  H          -3.56971145170146     -1.19660540370546     -0.80943388604347
  H          -3.56958023264253     -1.08891077029913      0.92831393738119
  H           9.24436744627805     -0.98745914343396      0.94344428885339
  H           9.24564155918210     -1.09912248913707     -0.81615448940806
  H          10.09105521764027      0.22742298131039     -0.01642582331541
  H          -7.26335016586066      0.84476661027975      0.81734596918710
  H          -7.25912048093664      0.74688299942661     -0.94134956674390
  H          -8.15905293105580     -1.50563804790286      0.95020228698680
  H          -9.23920024020074     -0.47116668435266      0.00435691508871
  H          -8.15544017546902     -1.60376507679415     -0.81684322740971
