21
Coordinates from ORCA-job 78016 E -685.736775704814
  O           2.82602334031436     -0.04241717153340      0.33099607871519
  O           1.52510954174231      2.34177090656011      0.39767215868080
  O           1.46526374610406     -2.34371450162816      0.02543296726247
  O          -3.43824510399510      1.12305614429701     -0.42144690907677
  O          -3.46117638058343     -0.97760023721256      0.28284676978452
  C           1.47337703514253     -0.00009424523586      0.20138196619664
  C          -1.32158783945298      0.04012653031878      0.06505411443691
  C           0.77706010228625      1.21250215682354      0.25607683511062
  C           0.74783247938876     -1.19237416032004      0.08293142761895
  C          -0.61203820689164      1.23585556645335      0.18151599230432
  C          -0.64068954588480     -1.17094550817958      0.02817837247333
  C          -2.81306131262052     -0.00882440822729     -0.00306456939826
  C           3.56560421120462      0.32695891637093     -0.83741187357997
  H           0.94577068089173      3.10982795279915      0.45302324353769
  H           0.86036681439275     -3.09270128734092     -0.02874368686155
  H          -2.79177746495277      1.75664842436469     -0.75735843805374
  H          -1.12228912559056      2.18758954885447      0.28343871938346
  H          -1.20940622623044     -2.08895182128272     -0.04939909948463
  H           4.61635254430931      0.23532877296106     -0.57187908037819
  H           3.33625453869193     -0.35104443357214     -1.66374520781560
  H           3.34830217173362      1.35677085472958     -1.12775278085616
