22
Coordinates from ORCA-job 7818 E -346.482319103817
  N           1.40251758590060     -0.00085721026189      0.27518921559339
  N          -1.40269108258904     -0.00085753732960     -0.27525521183609
  C          -0.73035085559683      1.19553571681773      0.20928586313003
  C           0.73018917738252      1.19550429065275     -0.20944717577166
  C          -0.73036346464931     -1.19724326885727      0.20934612945790
  C           0.73018302523255     -1.19724550691260     -0.20936534571120
  C           2.81461258604539     -0.00084986467908     -0.04886427871088
  C          -2.81480725093288     -0.00082180171512      0.04874134007036
  H          -1.23011914326558      2.07182878287199     -0.21007266751409
  H          -0.78875647423435      1.27024829964672      1.31051462206661
  H           1.22996986095354      2.07181708439755      0.20985286634517
  H           0.78859065276870      1.27012798637806     -1.31068369026904
  H          -0.78879301818240     -1.27188978971507      1.31057648714484
  H          -1.23006870430867     -2.07356294030512     -0.21002211999256
  H           0.78859404609357     -1.27192894791120     -1.31059829141411
  H           1.22987904037658     -2.07357663556720      0.20998859749229
  H           3.29176474165341     -0.88522452785193      0.37727857003285
  H           3.00434078792570     -0.00072429406723     -1.13726090321385
  H           3.29182132013491      0.88339580710048      0.37748743855209
  H          -3.29193907540259     -0.88521683480625     -0.37738145615708
  H          -3.00457548433217     -0.00063367798087      1.13712897491466
  H          -3.29197727097366      0.88340987009515     -0.37768896420963
