26
Coordinates from ORCA-job 78249 E -390.576956470069
  C          -1.62224372876065     -0.21838989109649     -0.14352715909714
  C          -0.82111010931429      0.90393930426442      0.48408195098050
  C          -0.51189830114336     -0.53004248499007      0.84617089728001
  C           0.23802526213059      1.67917580164617     -0.28413452490249
  C           0.80207819755687     -1.06360787042758      0.42589924528756
  C          -1.44657922569211     -0.56138557079286     -1.60357060571201
  C          -3.04006474364809     -0.39348781760866      0.35339408797507
  C           1.66440362667356      1.22496567308657      0.05719347644798
  C           1.81944340365848     -0.27919984044300      0.06568656814937
  C           3.16358586757868     -0.82043793175707     -0.31611690035793
  H          -1.35207472411293      1.47809787288345      1.23424111226117
  H          -0.85325237538486     -0.87789763318047      1.81661582932571
  H           0.08651781726406      1.56781635696198     -1.35983148344889
  H           0.13250888388798      2.74539075928832     -0.07318094965677
  H           0.93409353540993     -2.14206436769188      0.43401896471017
  H          -1.83373815543128     -1.56423044328481     -1.80296829943314
  H          -1.99890120055847      0.13837577282263     -2.23758922393216
  H          -0.40217698095424     -0.54788521019877     -1.91021372040941
  H          -3.12566345046619     -0.13827261203956      1.41141021121481
  H          -3.73043958894411      0.24792880977451     -0.20240559403207
  H          -3.37400936074604     -1.42773795424249      0.22972441846855
  H           2.37027280163137      1.66266733189030     -0.65454784786222
  H           1.95427673555975      1.61282538385869      1.04184217242856
  H           3.94754010334622     -0.40167769307134      0.32389680820700
  H           3.19940665213924     -1.90735277187123     -0.23324832198365
  H           3.42156905831989     -0.54390397378075     -1.34382011190860
