23
Coordinates from ORCA-job 7884 E -425.553707576996
  O          -1.17165219273534      0.76999760915924     -0.53656747228860
  O           1.71472669745954      1.50339861139075      0.39871285835809
  C          -0.83816574939872     -0.47081901335674      0.08170819669035
  C           0.35148798156303     -0.32682683257054      1.07418279480967
  C          -0.48282874956832     -1.37788307476050     -1.09360017713895
  C          -2.03546786589623     -1.05269030875396      0.84174839588487
  C           1.59919295130605      0.30173902709284      0.48040849433878
  C           2.70473999879041     -0.62852600118435      0.03529278361651
  C          -1.53352915930808      1.85725150280733      0.29651518947198
  H           0.03703963037739      0.29734448777859      1.91142094923052
  H           0.57737290356056     -1.32102690057017      1.46486788804547
  H          -0.14391999681653     -2.35591289416208     -0.74850148531175
  H          -1.36159728334866     -1.51704871102725     -1.72365784237497
  H           0.29574698012543     -0.92419861756702     -1.70618956774167
  H          -2.28720609016565     -0.46065752986279      1.72200130104953
  H          -2.90567136218097     -1.08592708215586      0.18464330030778
  H          -1.81612758461206     -2.06768728726134      1.17685102835914
  H           3.16187410613998     -1.08036756240434      0.92136853519334
  H           2.31614961507533     -1.44700719953949     -0.57216530065881
  H           3.46216426964069     -0.07415477093603     -0.51457250936877
  H          -2.39254683760423      1.62318353401954      0.93386257653914
  H          -0.69537639964298      2.19174533388261      0.91184226538540
  H          -1.81362986276064      2.66729167998156     -0.37521620239706
