24
Coordinates from ORCA-job 78887 E -538.657769027189
  O           0.09580033073969      1.67352147052272      0.38230363498593
  O           1.96891396564301     -0.47092233703155     -1.30605127073420
  C          -0.07785614350959     -0.64096755023490      0.66133947061364
  C           1.37738786416761     -0.63549645466550      1.01619153656663
  C          -0.70423014399723      0.56953992909842      0.32773068414822
  C          -0.82811076401626     -1.80624132500519      0.62620516406910
  C           2.30492341047782     -0.31779216308770     -0.15782569858282
  C          -2.04916315061158      0.59719118171569     -0.02570085519912
  C          -2.17558886610443     -1.79279264615734      0.27462347545223
  C          -2.77924011402522     -0.58900073898807     -0.04999653339305
  C           3.67993648092467      0.18399791615589      0.21828194858035
  C          -0.43729963193576      2.91587903902044     -0.04203985692055
  H           1.58487395959915      0.07718808340623      1.81872992122432
  H           1.67770613577172     -1.61949514789180      1.39157075739439
  H          -0.34595553043088     -2.74464238561904      0.87356478230903
  H          -2.53393715041597      1.52653485439926     -0.28545376720998
  H          -2.74145151451493     -2.71455061952420      0.25236343952428
  H          -3.82508554673290     -0.56035519536065     -0.32824256670906
  H           4.11908656085966     -0.43027674935130      1.00810937819409
  H           4.32842824451301      0.19551170188016     -0.65497148449142
  H           3.58716827658607      1.19863725345644      0.61595947839093
  H          -1.26896339535438      3.23205041884860      0.59466434848007
  H           0.37356301224458      3.63580582793857      0.04174780975862
  H          -0.77416028987787      2.86639363647481     -1.08118879645164
