14
Coordinates from ORCA-job 790 E -487.135190283356
  O          -1.76244924570430      1.88785906271249     -0.00028115927906
  N           1.25066525143664      1.38454858975192     -0.00012165373672
  N          -0.10041775488829     -1.80928233939327      0.00012972581263
  N           2.08246433291372     -0.68533989326168     -0.00009190554252
  N          -2.01164703895234     -0.40998629579970      0.00006578411282
  C           0.16777704349558      0.53709336589869      0.00010847267527
  C           0.72658073884246     -0.71848722975159      0.00010479989488
  C          -1.25499970352928      0.78053766449215      0.00012539429266
  C           2.36191504503693      0.60696161815773     -0.00023979250083
  C          -1.44497469075444     -1.56721521982241      0.00009114576294
  H           1.19822770485958      2.39007655788184     -0.00022097760165
  H           0.27136746897764     -2.74560092341417      0.00007828992670
  H           3.35739841851965      1.01999223091491     -0.00047285025964
  H          -2.06279557025356     -2.46066318836690     -0.00002327355748
