15
Coordinates from ORCA-job 79089 E -631.566202078603
  S           2.11829206709801     -0.00090513326733     -0.14225051834240
  C          -0.34639448222673      0.71845318944560     -0.01342849199056
  C          -0.34698621136135     -0.71825066072176     -0.01352112696443
  C          -1.59455169212912      1.54504229869483      0.05169743883827
  C          -1.59582093667095     -1.54382328956728      0.05150612494163
  C           0.91871234507152      1.22950833277487     -0.07945200355042
  C           0.91769872920969     -1.23033707194911     -0.07961160963135
  H          -2.16369577516312      1.33502857980050      0.96156731950865
  H          -1.36280093002676      2.60979960866303      0.03914215435925
  H          -2.25559571971917      1.33431369130407     -0.79358071925779
  H          -2.16464282234301     -1.33367497096176      0.96154733976394
  H          -2.25682585147914     -1.33223775681754     -0.79358739395062
  H          -1.36495572582620     -2.60876795702204      0.03852746198874
  H           1.20555377317890      2.26892474753950     -0.09441081707162
  H           1.20368823238745     -2.26998560791558     -0.09470915864128
