11
Coordinates from ORCA-job 7922 E -380.505752819672
  O           0.00006065749251      0.94215958281384      0.00001082613242
  O          -2.22673053455738      0.65182340165783      0.14128327713738
  O           2.22680790567386      0.65151835923722     -0.14132463007206
  C          -0.76110417366845     -1.30180798874639      0.04878183451722
  C           0.76091977059207     -1.30191724542930     -0.04875160707277
  C          -1.14637463778706      0.16406315729682      0.07287443473982
  C           1.14639163953880      0.16390120579886     -0.07287115437637
  H          -1.25805658113376     -1.77485014483817     -0.79799522142098
  H          -1.14570825111908     -1.77399556579378      0.95261165040654
  H           1.25780440346845     -1.77500315157351      0.79804350847713
  H           1.14546380150006     -1.77416961042342     -0.95257291846833
