9
Coordinates from ORCA-job 7923 E -379.276503383813
  O          -0.00000269125039      0.96873691260690      0.00001476959125
  O           2.23471426202831      0.59657854547839     -0.00025681836693
  O          -2.23470135772580      0.59646264176317      0.00021660885915
  C           0.66443914129333     -1.25475790275226     -0.00013288264800
  C          -0.66432923199334     -1.25479339145067      0.00000666789236
  C           1.12930142938766      0.15787258555981     -0.00015407739160
  C          -1.12926641853420      0.15781302497465      0.00010447602303
  H           1.35414242276242     -2.08387176299188     -0.00023761939619
  H          -1.35398855596799     -2.08394365318811      0.00004687543693
