19
Coordinates from ORCA-job 7948 E -386.045138272204
  O          -0.05270205852438      2.77803957546543      0.03907598512142
  C          -1.21457253484329     -0.66395166674762     -0.03540704530872
  C           1.21496829337558     -0.67616012615267      0.01352639379107
  C           0.00184840293944     -1.35253101397163     -0.02267130639600
  C          -1.20491174704131      0.72372723568150     -0.01518494324415
  C           1.20824834200412      0.71950021970115      0.03623084408552
  C           0.00542378541003      1.41191519344118      0.02136073937391
  C          -2.51516333379176     -1.42118539824149     -0.04932051735616
  C           2.52158952541314     -1.42300556389863      0.02415791185319
  H           0.84194957854269      3.13567899034770      0.06113674400495
  H          -0.00117289915358     -2.43623201827864     -0.04312690994233
  H          -2.12743487735231      1.28967389662873     -0.02847372074182
  H           2.14627056708652      1.26574315220966      0.06210330818419
  H          -2.72457812550783     -1.85231139539970      0.93365268658471
  H          -3.35074702993823     -0.77226519645560     -0.31180474088115
  H          -2.48466861664501     -2.24553586187392     -0.76435931991844
  H           3.10872278067267     -1.17837217236385      0.91282906427759
  H           2.35991931864264     -2.50070903852037      0.01437219964073
  H           3.13011962871085     -1.16590681157120     -0.84652437312850
