21
Coordinates from ORCA-job 7962 E -275.124660895739
  C          -1.04031238285051     -0.01509257419650     -0.31905679052045
  C          -0.32283616499494      1.26063353621895      0.13647451798104
  C          -0.31023037016441     -1.25374327437434      0.21245451808103
  C           1.15773381120614      1.26116791730490     -0.24790944435217
  C           1.17044637437144     -1.26256152489224     -0.17150647181603
  C           1.87328378048855      0.01778812847099      0.28328265008095
  C          -2.51008107715673     -0.01004884838534      0.09143844900880
  H          -0.99164837479211     -0.04799580974839     -1.41577871524145
  H          -0.82383367991280      2.13736764068803     -0.28435879720216
  H          -0.41381074674763      1.34390832001959      1.22671486240511
  H          -0.40079446832323     -1.27202477863100      1.30574137139796
  H          -0.80212741126943     -2.15927637816564     -0.15469871964423
  H           1.24563341022959      1.28695797113818     -1.34017885382767
  H           1.64353560109489      2.16677319620567      0.12488420921502
  H           1.66519071629139     -2.13907983416490      0.25515978335101
  H           1.25894006726772     -1.35350440188330     -1.26025196242581
  H           2.91731028735748      0.01321953225192     -0.04081428431364
  H           1.88550914448287      0.05107370835641      1.37893281125215
  H          -3.02409918317794     -0.90718118976824     -0.26152836512041
  H          -2.60734395071066      0.02232038494918      1.18038291077827
  H          -3.03291038268966      0.85898927860609     -0.31484767908732
