20
Coordinates from ORCA-job 7965 E -291.165342672563
  N          -2.46186792529218     -0.04028669801517      0.06510856754802
  C          -1.04682837220836      0.02052151946035     -0.30810273550335
  C          -0.31073792016041      1.27292726932843      0.18798209007751
  C          -0.33719806111078     -1.24251470537407      0.17790433697708
  C           1.16770313647193      1.26832653663812     -0.20779063984565
  C           1.14256133754816     -1.25594083163997     -0.20998124831713
  C           1.86713191757023     -0.00115475765443      0.28090498399851
  H          -2.55326060272161     -0.06396800651426      1.07624671444385
  H          -2.94935209128516      0.79108042768290     -0.25177294453747
  H          -1.01283294115669      0.02197389231054     -1.40472190989948
  H          -0.80796959494282      2.16735824389817     -0.20011111797534
  H          -0.39705567835547      1.31377369024211      1.28107799447170
  H          -0.42569479568247     -1.29240517583931      1.27108264003531
  H          -0.85380266528265     -2.11830307904171     -0.21964245327373
  H           1.24847731247175      1.32607720657175     -1.29938835534680
  H           1.66785423814850      2.15613076131745      0.18767155797017
  H           1.62481897922837     -2.15268288747870      0.18719418604841
  H           1.22691509725766     -1.31521093314554     -1.30108174211799
  H           2.90886531458267     -0.01155658011247     -0.05003130998564
  H           1.88615131491931     -0.00164689263417      1.37688938523202
