17
Coordinates from ORCA-job 7967 E -309.840204199971
  O           2.21762660938801     -0.00347374066618      0.38839062621678
  C          -1.84289929424999      0.00033992432708     -0.10634061244512
  C          -1.07094700576705     -1.26221100171868      0.27682975850067
  C          -1.06965136426213      1.25939909231439      0.28562516531280
  C           0.33195764508798     -1.27933569110349     -0.35225885203429
  C           0.33327149204492      1.27953028501734     -0.34324372206214
  C           1.09210067779756     -0.00136039738898     -0.05540907983670
  H          -2.02152779965263      0.00416883466600     -1.18767646747288
  H          -2.82450193540387     -0.00078608264923      0.37351627461811
  H          -0.97327744926585     -1.30919842113707      1.36628639082544
  H          -1.61924214196759     -2.15667604151411     -0.02669375836015
  H          -1.61709227800291      2.15649275241386     -0.01162334376055
  H          -0.97199816429718      1.29867538045079      1.37538706409482
  H           0.92563740756279     -2.12597397990451     -0.00876253649803
  H           0.23247270267332     -1.35696273149408     -1.44182083320547
  H           0.23408121797047      1.36497591676887     -1.43224755508588
  H           0.92783168034415      2.12303690161799      0.00636948119259
