22
Coordinates from ORCA-job 796857 E -537.455499918607
  O           4.48693324841819      0.38406663888324      0.09556249294593
  O          -3.80259974598450     -1.17497055268415     -0.22073267458788
  C           0.36778996545333     -0.22626155840919     -0.05343509862589
  C           0.92960881918389      1.05860990737741      0.02578308760698
  C           1.24558824425824     -1.31613224771112     -0.08155886801716
  C          -1.06162554696898     -0.47257530072831     -0.10676996341921
  C           2.29515684275308      1.24549244830593      0.07442056090526
  C           2.61926357677773     -1.14331876354266     -0.03335946513860
  C           3.14953697162330      0.14119563412397      0.04497070546197
  C          -2.05927108004716      0.42457988450688     -0.09088980684775
  C          -3.47285557828064     -0.00505813168664     -0.15292841685380
  C          -4.50315925729895      1.10325576417118     -0.12715526981683
  H           4.97246643773052     -0.44861228897704      0.06860615273125
  H           0.28422581838654      1.92639198972675      0.04957918926016
  H           0.83820319488721     -2.31771658220551     -0.14247268099744
  H          -1.36255682725164     -1.51490611900293     -0.16716857699818
  H           2.72438547196448      2.23645073514651      0.13538812936646
  H           3.27909617077206     -2.00343687273344     -0.05648227259378
  H          -1.86736875866502      1.48961955152266     -0.03239092976193
  H          -4.39624018909610      1.69553961109167      0.78593685085766
  H          -4.34563444009187      1.78357167828436     -0.96876639858536
  H          -5.50466833852369      0.68264957454041     -0.17709574689187
