12
Coordinates from ORCA-job 7971 E -323.468283887976
  O          -2.36307938501670      0.00307737292607     -0.00003758690945
  N           1.08391800914057     -1.17918159774249      0.00007952014451
  C          -1.00069098226314      0.00246563898517     -0.00000983261944
  C          -0.33509205344985      1.22204407018965     -0.00004789010841
  C           1.05026729636176      1.21049885724310     -0.00000936936892
  C          -0.24479040336888     -1.16935389715106      0.00005384549322
  C           1.71960884054157     -0.00898345124157      0.00005109564755
  H          -2.68913719066239     -0.90474809657753     -0.00000396006039
  H          -0.90184705197593      2.14369519533317     -0.00009710943063
  H           1.60760748526529      2.13806856573385     -0.00003086291336
  H          -0.74383266733182     -2.13666746584587      0.00008122612785
  H           2.80290410275951     -0.04644719185250      0.00007492399747
