39
Coordinates from ORCA-job 79730 E -1071.520727817067
  O          -0.00194090262858     -0.50675161492845     -0.00922663599855
  O          -4.31179016840349      1.71487540509897      0.18264013071741
  O          -4.06497842585407     -2.93400029147357      0.05489478364734
  O          -1.82549173022380      3.12101533997132      0.18443102466527
  O           6.28515820688171     -0.24828940287042     -0.08000480163050
  C          -2.07696938064339      0.74193166295091      0.05228199079327
  C          -1.36694924249637     -0.46477578181903      0.00975085295395
  C           0.72997052322126      0.63618599841785      0.04852230762922
  C          -3.49516209881450      0.63213522062478      0.08663467516167
  C          -1.31717766100879      2.00571859995378      0.12502285367303
  C           2.17214998440010      0.37934695651777      0.01861432102067
  C           0.12666460286967      1.83999548517622      0.11536311184721
  C          -1.97192525126107     -1.71879617225219      0.00197148605483
  C          -3.35581492088312     -1.78164776498169      0.04922950225161
  C          -4.10952918364376     -0.60299311596812      0.08890824007082
  C           3.09568676842097      1.38940366416365      0.32977804295565
  C           2.66975622175988     -0.87779351248436     -0.32634347526065
  C           4.45205100970935      1.15176125943524      0.28823573114818
  C           4.03500312473831     -1.12947811736250     -0.37388291769705
  C           4.93699683433632     -0.11192428305683     -0.06704639231197
  C          -4.46033472571844      2.51011244669984     -0.99755745701422
  C          -3.35688059315402     -4.16406333904822      0.01141872266673
  C           6.83537472484256     -1.51030477100998     -0.42632801445612
  H           0.71127261832646      2.74620480762820      0.14282613188657
  H          -1.34324867845090     -2.59437082867095     -0.02571739935878
  H          -5.18807078294673     -0.65787766233592      0.12636957940412
  H           2.74717239883366      2.36956478901298      0.62346213232958
  H           1.98038422817517     -1.67307362588939     -0.56903119949638
  H           5.16279029177957      1.92907297873502      0.53436179619017
  H           4.37983754069212     -2.11454330793828     -0.65035589516042
  H          -5.16694642471795      3.29573753321041     -0.73970084944072
  H          -3.51234742830821      2.95932179055254     -1.28770535267644
  H          -4.86903725882880      1.89942347035502     -1.80891198560898
  H          -2.70416654612496     -4.27545524782920      0.88167392216167
  H          -4.11345214721184     -4.94446758307743      0.02333227406557
  H          -2.76244370320908     -4.24602017450987     -0.90285733456022
  H           6.51770551649952     -2.28723806225404      0.27479827020727
  H           6.55369593519513     -1.80025690713492     -1.44256945340900
  H           7.91443172385014     -1.39113484160911     -0.37020771942179
