24
Coordinates from ORCA-job 79738 E -575.752734026195
  O           0.28046298061893     -1.59027504158651     -0.42678421413586
  O           2.48502686709198     -0.03113038234284      0.32497826796112
  O          -2.78144167937938     -1.24863740897438      0.54325487217156
  C          -1.12995607346759      0.33843501796319     -0.29708186239214
  C           0.13209399911839     -0.25160748331497     -0.17244248284089
  C           1.24373991114321      0.53083693935324      0.16468564331669
  C          -1.26123000028188      1.70902949312101     -0.07859920444198
  C          -2.33115246934949     -0.51372627545078     -0.60216221637370
  C           1.08770980246309      1.89329402095322      0.39439769827156
  C          -0.16340366860586      2.48316938573433      0.27491358958637
  C           0.41103033544755     -2.41554996278890      0.73888760862695
  C           3.10569118347346     -0.49559703999620     -0.87786254418186
  H          -2.93403756081268     -0.61799579988882      1.25650699076504
  H          -2.23734493608174      2.16788589502821     -0.18465687058942
  H          -2.09013291993765     -1.26866291581645     -1.34786484386187
  H          -3.13768532343744      0.11663052061978     -0.99200062629404
  H           1.96198867888796      2.47149212962591      0.66371932351463
  H          -0.27831893495945      3.54531860349972      0.44754509749329
  H          -0.51096446305312     -2.38074570072467      1.32231776619904
  H           0.57772485309745     -3.42809653909836      0.37667656015482
  H           1.26067693932343     -2.09562206661166      1.34533933598216
  H           4.06739917986780     -0.91065510189932     -0.58285148425619
  H           2.50158273848844     -1.26369821235654     -1.36222679714656
  H           3.26486656034460      0.33813992495178     -1.56820660752874
