16
Coordinates from ORCA-job 798 E -363.756602455919
  N           1.55930154460554      1.11344237831073     -0.00007059457085
  C           0.25133866872054      0.68775163951581     -0.00002783985283
  C           0.27196207798291     -0.72965249480627      0.00000916600450
  C           1.64848159408497     -1.12559149390804     -0.00003646261063
  C          -0.93661978280600      1.41458869357796     -0.00002445664803
  C          -0.94502052782868     -1.42187714934786      0.00002086187773
  C           2.39478271149889      0.01721784546906     -0.00002626271578
  C          -2.12248363271175      0.70123535117363     -0.00001021551725
  C          -2.12644923264041     -0.70387841494827      0.00000185476817
  H           1.85926409032647      2.07100957074822     -0.00010980579380
  H           2.03419344693038     -2.13126629816639     -0.00005466455427
  H          -0.93537347916651      2.49763802555838     -0.00004762137288
  H          -0.95872525150213     -2.50472667204896      0.00001957877661
  H           3.46442237470851      0.14464868187845     -0.00003866393085
  H          -3.06413533660424      1.23488181419816     -0.00002015999800
  H          -3.07314826559850     -1.22863147720459     -0.00000871386183
