12
Coordinates from ORCA-job 79828 E -1672.484723652359
  S           1.95928381186524     -0.31841560406870     -0.86258278804510
  S          -1.89574562357443     -0.80065803550198      0.50326890996056
  S           0.54126494379287      1.15314959874521     -0.67622492177077
  S          -0.60150574430698      0.70590912007735      1.01906842247161
  C           3.19543254020640      0.16319736338638      0.38152835424963
  C          -3.18912186317099      0.08643721131162     -0.41765987190056
  H           2.75623417828297      0.12478055533296      1.37679949557201
  H           4.00091922484469     -0.56944215189854      0.31340617685157
  H           3.58388457737391      1.15770026259414      0.17253441561346
  H          -3.65100731915259      0.84872680603672      0.20618143846297
  H          -2.76691280132977      0.53139262180234     -1.31693524215809
  H          -3.93274592483133     -0.66063174781749     -0.69894638930729
