26
Coordinates from ORCA-job 7983 E -464.890484601837
  O           0.10906981479020      0.30374264227566      0.01177944036893
  O          -1.12576267764982     -1.57095884038214     -0.13402355178251
  C           2.49600336993654      0.45064573862127      0.02025272624143
  C           3.82749234197466     -0.29658736266815     -0.03878337404980
  C           1.31254416069427     -0.49003888988321     -0.04996154338438
  C          -2.23111275518768      0.57460989715738      0.03657112582244
  C          -3.58269666879182     -0.12395661805367     -0.03821474328462
  C           5.03093217968330      0.63964027010126      0.03104530469666
  C          -1.05637117149375     -0.37148118769165     -0.04007012906490
  C          -4.74484260937710      0.86150839122973      0.04504509181464
  H           2.43703440783265      1.03233859212324      0.94502965801089
  H           2.43443675573016      1.16597557020838     -0.80532422210783
  H           3.87647925836470     -1.01729490434571      0.78393731587236
  H           3.87392008611016     -0.88384608070123     -0.96163601218691
  H           1.30962144216769     -1.20024175683916      0.77948859530898
  H           1.30766562339401     -1.06660037333073     -0.97725763124184
  H          -2.12089855218681      1.30745014828085     -0.76878583708907
  H          -2.13502262530689      1.14653111492468      0.96498008253061
  H          -3.63975554725024     -0.69557492346521     -0.96716320066799
  H          -3.65207357243232     -0.85734515669469      0.76804061938465
  H           5.02693840776686      1.21567999704288      0.95956581867920
  H           5.96960092405059      0.08448424870859     -0.01300745069865
  H           5.02409997098677      1.35041570794736     -0.79885810662018
  H          -4.72335786088182      1.42215054921368      0.98319471332415
  H          -4.71022366521147      1.58610722911066     -0.77266268431646
  H          -5.70415003771285      0.34422499710993     -0.01042100555982
