48
Coordinates from ORCA-job 7984 E -778.115893134916
  O           2.54134324491032      1.50423499390400      0.53758983786109
  O           3.09845194449539      0.48654775357681     -1.39605628411898
  C          -4.00954473516593     -1.11081206980759      0.30526077539527
  C          -3.08525189085804     -2.09180643126296     -0.42134830719020
  C          -3.41344986675217      0.28099385298604      0.55810412828556
  C          -1.74181014956978     -2.33457413962961      0.26236369326932
  C          -2.78969478436907      0.93102337678102     -0.67880558759996
  C          -0.79041669916051     -3.15969130967407     -0.60256725640297
  C          -2.53952074682435      2.43550323075409     -0.54208007073521
  C           0.63262370443331     -3.28076088773931     -0.05392233616444
  C          -1.69434355336324      2.86523707711262      0.66124976774603
  C           1.29959119989990     -1.92608691946587      0.19424775523866
  C          -0.27680963411504      2.29025696072588      0.73390831108072
  C           2.82330545673585     -1.99328820069685      0.25237134541107
  C           0.59620857506062      2.60719953584939     -0.48687710566385
  C           3.45344411130213     -0.66807401344074      0.69241354380244
  C           2.08106974960543      2.67786873611720     -0.16955833428414
  C           3.02453806326023      0.48052108599765     -0.19229100098049
  H          -4.92348662946371     -0.99855600483788     -0.28731111215208
  H          -4.31862514973535     -1.54075462562076      1.26370060462659
  H          -3.60735852659774     -3.04569041441065     -0.54738431131047
  H          -2.89625459794380     -1.72085669481951     -1.43353558704620
  H          -4.20735527592972      0.92970433546208      0.94324505824803
  H          -2.66679062786579      0.22170057502572      1.35437390679348
  H          -1.27626807972077     -1.37267236685636      0.48532222357816
  H          -1.89513918654494     -2.82867991566817      1.22884668666468
  H          -1.85281331308786      0.42401394755215     -0.92662691023125
  H          -3.44881671911884      0.77290841747053     -1.53892038220077
  H          -1.21090383101691     -4.15834947783077     -0.75847161853510
  H          -0.73584079263453     -2.69486738976289     -1.59385392260292
  H          -2.07390226328583      2.79877583634360     -1.46330257290950
  H          -3.50631162647133      2.94520173474110     -0.47340631734962
  H           0.63187356518800     -3.86310952393009      0.87386884622050
  H           1.23367852950308     -3.84959267661016     -0.77063884678709
  H          -1.62254996439993      3.95825592939775      0.65245570139033
  H          -2.22182176247162      2.60809221451376      1.58398688178476
  H           1.01267770124277     -1.23583633104836     -0.60586054797320
  H           0.92165012077382     -1.49043800300865      1.12407983702275
  H           0.20371829558310      2.69325111698771      1.63070771208518
  H          -0.31243909101992      1.20819337425444      0.88187843776862
  H           3.13948009234383     -2.77392881527925      0.95035325441610
  H           3.21053105619044     -2.26876919396716     -0.73125725469755
  H           0.42846522238940      1.88022724489953     -1.28417536890329
  H           0.32102300713104      3.58528353567640     -0.89703244075912
  H           3.19198734731171     -0.43880285748708      1.72536384798521
  H           4.54320360826230     -0.73230238635935      0.63004856279349
  H           2.28505116110966      3.49938107755623      0.51779429126907
  H           2.67407674075443      2.80188970552842     -1.07439553413874
