32
Coordinates from ORCA-job 79985 E -394.232277585713
  C           1.50800813491679     -0.30408798781583      0.32866172364470
  C           0.16000666211708     -0.52780504114535     -0.37173075088835
  C          -1.06173648493251      0.00139889037430      0.37564580307640
  C           1.79136800482059      1.17733858459899      0.63627163840607
  C           2.62940600105877     -0.97712682664678     -0.47761024315995
  C          -2.38063804091718     -0.37549024227923     -0.29517229622990
  C          -3.61111331650683      0.16174199144155      0.43239433635658
  C           1.88761273980284      2.08995673507358     -0.58568538809849
  C           4.01017834545522     -0.92526175448014      0.17214558353979
  C          -4.92383093084757     -0.22265138648935     -0.24526811671104
  H           1.45738457309689     -0.81689320636653      1.29855496419703
  H           0.18988344533468     -0.08493330716570     -1.37316971767319
  H           0.03486931510440     -1.60464141646595     -0.52923244554887
  H          -1.05462346888548     -0.38384881268455      1.40210779530846
  H          -1.00794444311817      1.09095731503052      0.46029365900270
  H           1.01085598274238      1.55287521855210      1.30237577084840
  H           2.71970057121974      1.24605408819645      1.20854444094303
  H           2.34935771898040     -2.02350322102301     -0.63430781872404
  H           2.67811328368120     -0.53118554071698     -1.47610126824254
  H          -2.38072519538699     -0.00355400508691     -1.32650947168968
  H          -2.45189124644802     -1.46690128550135     -0.36797726315613
  H          -3.60881043002141     -0.20806341134513      1.46333949131458
  H          -3.54002872366219      1.25248898107668      0.50137541820436
  H           2.09256364708778      3.11842263096585     -0.28227912566948
  H           2.68910632099298      1.78204704356195     -1.26004941722221
  H           0.95914703158178      2.09719005448911     -1.16002752463228
  H           3.98214699532821     -1.32854982236532      1.18801102774392
  H           4.73164919893142     -1.51353959071785     -0.39837923371720
  H           4.39558930620643      0.09399610643747      0.23226711766572
  H          -5.78553098623505      0.17440181416180      0.29510467412000
  H          -4.96539103520872      0.16236085435581     -1.26741635360524
  H          -5.03521097628945     -1.30870345002020     -0.29803600940314
