17
Coordinates from ORCA-job 8003 E -197.715340093730
  C           0.00011554383838      0.32591135620643      0.03769248493678
  C           1.27774711712940     -0.50343006833288     -0.07085640677290
  C          -1.27815086831654     -0.50267354654530     -0.06916630332625
  C           2.54843279967201      0.33548713111637      0.03800473760603
  C          -2.54819825204638      0.33714401557034      0.04037990602925
  H           0.00089078595747      0.86763146682185      0.99091994743634
  H          -0.00016911083408      1.09318744806493     -0.74549954048805
  H           1.27633403572660     -1.26954180324948      0.71183787707916
  H           1.27563637036781     -1.04350984677811     -1.02365410413366
  H          -1.27733432748466     -1.04323045824780     -1.02169889984038
  H          -1.27650449265801     -1.26833025487638      0.71395674068140
  H           2.59130633499219      0.86092602558173      0.99546391681852
  H           3.44499028980512     -0.28239023919185     -0.04286011845236
  H           2.59064261577682      1.08877532487272     -0.75284672215980
  H          -2.58973764569442      0.86327610632823      0.99752037900115
  H          -2.59076102016375      1.08990100358746     -0.75095312846978
  H          -3.44523017606795     -0.28022166092828     -0.03913376594545
