15
Coordinates from ORCA-job 8004 E -196.485713107768
  C          -1.14620271087904     -0.50401237615979     -0.02527283171178
  C          -0.00525440790029      0.51227438761824     -0.16374347887625
  C          -2.50967357289256      0.15983310894324      0.14487334774871
  C           1.32839886347593     -0.13412829540710     -0.37531694238333
  C           2.37272931387679     -0.02245690457826      0.43593261214374
  H          -1.15890544437605     -1.15203340392333     -0.90757193216067
  H          -0.93844073026782     -1.15468207478443      0.82910569511874
  H          -0.22785471202325      1.17024056514941     -1.01293594601048
  H           0.03020569148130      1.14905435225808      0.72535356051150
  H          -2.53047786761956      0.79206143081510      1.03609451792059
  H          -2.74943464113244      0.79200863966357     -0.71387447679577
  H          -3.30405218652339     -0.58225206612034      0.24480184356758
  H           1.41783449647115     -0.75327947974045     -1.26568158040876
  H           3.30953964636553     -0.52538546371573      0.23145740531362
  H           2.32778626194369      0.58136757998180      1.33604620602255
