10
Coordinates from ORCA-job 8009 E -210.108326788072
  N          -2.26108742727064      0.40933660040748      0.03198125156128
  C           0.05706806089402     -0.78518876804601     -0.12088362210501
  C           1.16991844866586      0.06743492630507      0.43577804431961
  C           2.25113961975683      0.40413434891218     -0.25023426294099
  C          -1.24427440349573     -0.12247145204837     -0.04070432507104
  H           0.25604662747670     -1.04263443935267     -1.16343857405805
  H          -0.01520839932003     -1.72549979316209      0.43602348276630
  H           1.04285210143178      0.39911498728341      1.46078305032081
  H           3.03384058703644      1.00522078082792      0.19357203682849
  H           2.39434278482477      0.09339880887310     -1.27898208162139
