38
Coordinates from ORCA-job 80131 E -1032.661310861624
  O           1.17410459082323      0.43637280876990     -0.72974554780621
  O           4.51023874036808     -1.23145797242343      0.92725885183981
  O           4.48408170882142      1.61242789510554      0.37606635281003
  O          -0.04274353411699     -1.44493709005370     -0.31222837379365
  O           1.95919166403350     -2.36025101497435      1.44766291967852
  O           0.94365295308952      3.28570389298963     -1.33172864750615
  O          -5.44311454120650     -0.36561375507392      0.15120066735237
  C           3.32201916189796     -0.45861796185765      0.84512382309904
  C           3.47338585225382      0.72344540107977     -0.10211268424170
  C           2.19670562429777     -1.39969534831182      0.43714979546814
  C           2.11302944538071      1.40198192435089     -0.29066929658649
  C           0.91987201029683     -0.59953352622462      0.21127671227282
  C           2.14080235935120      2.52104663484208     -1.31742085402092
  C          -1.36951197068862     -1.08039807800850     -0.18760123767117
  C          -2.28268295696840     -2.12176768385207     -0.03646613308559
  C          -1.81625012348114      0.23147027857094     -0.23858514466853
  C          -3.63343846212524     -1.85072282287674      0.06895730932534
  C          -3.17940760140066      0.50609200124014     -0.11922654628171
  C          -4.09297362466439     -0.53172487390115      0.03363258540156
  C          -5.95763515212028      0.95194011575667      0.10875876888383
  H           5.24925657688799     -0.62391354918368      1.05614017359081
  H           4.19895245245398      1.97454888195545      1.22494180512771
  H           2.80296495069440     -2.78624603318589      1.64211625497875
  H           0.93528995403431      3.86584009851578     -0.56310327756074
  H           3.07066295353947     -0.06063653229428      1.84288315309503
  H           3.83563356641665      0.37026243825177     -1.06989373178839
  H           2.45594346523934     -1.88095816561115     -0.51353862225648
  H           1.79174081826954      1.81970041957764      0.68140563018272
  H           0.56711195133836     -0.15787849174801      1.15614749838563
  H           2.23023181772368      2.07739745763770     -2.30988411483572
  H           3.01911910234523      3.14843068510946     -1.13933238443018
  H          -1.91368156439535     -3.13786574697365      0.00213288112697
  H          -1.11857010999682      1.03874131085386     -0.40782175104995
  H          -4.35346621128277     -2.64935191880556      0.18818032446519
  H          -3.50696856328769      1.53402650637577     -0.16634236195641
  H          -7.03577441874585      0.85877200468759      0.21857318283715
  H          -5.56197466280600      1.56294803343210      0.92656787635743
  H          -5.73153122227029      1.43959277625748     -0.84485585673886
