22
Coordinates from ORCA-job 802 E -591.632015285977
  O          -3.83049226385614      1.22576520087784      0.19449271506532
  O          -2.38944368995256      0.59707678877791     -1.36745016627655
  N           1.01463972241087     -2.10501400629875     -0.08642161555296
  C           0.53953815924679      0.06036716611156      0.27361979940619
  C          -0.64673129790544     -0.71429913659147      0.49701045120250
  C           1.56524432369497     -0.84432528333737     -0.08911869546420
  C          -0.31309755240017     -2.01835401491164      0.26572480431957
  C          -1.98140151814332     -0.18977751802816      0.89034770570166
  C           0.83081193744194      1.42659962681307      0.34033564110393
  C           2.86048046631881     -0.42149867532980     -0.37478109302477
  C           2.11605275217227      1.85116122309076      0.05829960957486
  C           3.12097846791888      0.93551561070892     -0.29497230747721
  C          -2.71146272274517      0.56633639334055     -0.21879139470108
  H          -3.95268222854821      1.12223700187037      1.14706825128788
  H           1.50022269602904     -2.95391575779031     -0.31068800794292
  H          -0.92704093212907     -2.90259398681911      0.31982750630027
  H          -2.63712372853879     -1.00899399362191      1.20265111623538
  H          -1.89214608004986      0.47722253434543      1.75638948991440
  H           0.06090521929810      2.14394947026688      0.59591171717647
  H           3.63566209283118     -1.12477272178295     -0.65258949301478
  H           2.35459981591918      2.90585731847128      0.10221094815451
  H           4.11673936098669      1.29900675983690     -0.51330898198849
