22
Coordinates from ORCA-job 8034 E -350.346593540794
  O          -2.08622011490345      1.26996429880489     -0.44687508263892
  C           1.93536581285652     -0.17079795246279      0.31585121363515
  C           0.56833697193298      0.44598238232645     -0.00394662474103
  C          -0.60650377579010     -0.50538084355718      0.17390895267277
  C           2.28800752825123     -1.32688037285466     -0.62259705067236
  C           3.02252493627447      0.90418017092699      0.27249535348655
  C          -1.96462103507305      0.13281334217004     -0.05354429744387
  C          -3.16795805811277     -0.73602488652564      0.24537475486027
  H           1.89438201008194     -0.56627308513044      1.33892197103702
  H           0.40888137674224      1.31853622284933      0.63426865029344
  H           0.57147120388819      0.82724031550469     -1.02922410257303
  H          -0.53923655234344     -1.35762699653655     -0.51140853670284
  H          -0.60453067233608     -0.94849521796208      1.17737352956234
  H           3.27705356533405     -1.72837508863928     -0.39223956683780
  H           1.57566867993634     -2.15035352328240     -0.54930260798504
  H           2.30124460591614     -0.98690711281135     -1.66240068548103
  H           2.80188780535262      1.71978130643776      0.96435117088198
  H           3.99848525241571      0.49141401797590      0.53676660738429
  H           3.10228361265496      1.33173150990314     -0.73100297994926
  H          -3.23254352691122     -0.90942424241832      1.32334855932393
  H          -4.07693004915857     -0.24356014768379     -0.09307486970845
  H          -3.07159057700873     -1.71493809703470     -0.22966935840412
