22
Coordinates from ORCA-job 8051 E -350.345725413242
  O          -2.35045040299581     -1.27436244345431     -0.26948383467587
  C           1.62181163987789      0.43068020540047      0.01606613581675
  C           0.29186492281642     -0.31531864284824     -0.05122140384955
  C           2.83518564174401     -0.49577761859996     -0.02420098219336
  C          -0.90982830961849      0.61732477916972     -0.00878162527780
  C           4.16310444552386      0.25368168803314      0.04273830089686
  C          -2.25416613382434     -0.08203833189711     -0.09096209455581
  C          -3.47586141121108      0.79746178578278      0.06952249136587
  H           1.68485714753473      1.14234503536912     -0.81578727312313
  H           1.65927292445603      1.03270553422949      0.93180835507246
  H           0.24662731309998     -0.91625505681965     -0.96273537434026
  H           0.22288347777596     -1.02734794316677      0.77564876704371
  H           2.77171335349709     -1.20589656931335      0.80683631646320
  H           2.79754116008508     -1.09603867504783     -0.93913188414704
  H          -0.90136633750838      1.22922712564581      0.90129905528034
  H          -0.86893487141548      1.34019594370564     -0.83353782511636
  H           4.23943082966356      0.83695141887428      0.96400747497068
  H           5.01172310522475     -0.43243407077183      0.01242255178773
  H           4.26582051960372      0.94730457284847     -0.79576173716451
  H          -3.52300919744388      1.17235072487819      1.09587659391668
  H          -3.41768381406285      1.66964801899049     -0.58568129962462
  H          -4.37689500282280      0.22734751899145     -0.14586470854597
