18
Coordinates from ORCA-job 8054 E -422.182053014697
  O           0.83591240895997     -0.49487371657772      0.01870391356652
  O          -2.63704951314851      0.41680024538228     -0.08313341457814
  O           2.23876091160369      1.24590760642798     -0.23077514248119
  C          -0.28284991979148      0.40199664440836     -0.09605536651987
  C          -1.52876317249262     -0.44770998590535      0.02836638229526
  C           2.06079803270295      0.06704867308336     -0.06769630664910
  C          -3.87278731817996     -0.25763531774493      0.01821917726432
  C           3.13979500231592     -0.97260701387108      0.06657155803040
  H          -0.23807686255154      1.15342398629461      0.69262915354510
  H          -0.25016843582385      0.91462453801365     -1.05771550155372
  H          -1.53486009995666     -0.96953301379557      0.99547658147836
  H          -1.54586206340309     -1.21049573232743     -0.76252732836263
  H          -3.97427550091739     -0.76196582782912      0.98784457217010
  H          -4.65872396951887      0.48944419631061     -0.07931726483185
  H          -3.98638376097812     -1.00514764253883     -0.77748910374434
  H           3.04410058602845     -1.48641152259888      1.02420095161679
  H           3.03318107456450     -1.72251355322882     -0.71861343238861
  H           4.11328060058664     -0.49575456350312     -0.00425142885739
