20
Coordinates from ORCA-job 8058 E -237.018996986241
  C           0.66254667897239      0.37887100273008     -0.00110072838071
  C          -0.66253676112910     -0.37877770085955     -0.00008506401284
  C           1.88769839063849     -0.53286542596587      0.00198458031090
  C          -1.88769461734844      0.53293081676990     -0.00315114979314
  C           3.20676777166740      0.23532374336529      0.00063872674732
  C          -3.20675531869466     -0.23527416934705     -0.00248934622343
  H           0.70382732791789      1.03522913243322     -0.87818204834385
  H           0.70267655601773      1.03957456869879      0.87276431506106
  H          -0.70264203647691     -1.03950402297593     -0.87393991030621
  H          -0.70377557300809     -1.03516715021106      0.87697719807504
  H           1.84593669190583     -1.18783269120066      0.87877773918810
  H           1.84685360552092     -1.19253207448416     -0.87131768014558
  H          -1.84713253323788      1.19222034281342      0.87045171223766
  H          -1.84567332502269      1.18827334343730     -0.87964675671767
  H           3.28734795650644      0.87883423774481      0.88047218573525
  H           4.06440646212475     -0.44040785060210      0.00303959166462
  H           3.28841107938082      0.87393607528899     -0.88266007940976
  H          -3.28853498638711     -0.87443274876118      0.88040035968765
  H          -4.06440051188160      0.44045110696503     -0.00459125147023
  H          -3.28720085746619     -0.87824053583927     -0.88273339390416
