16
Coordinates from ORCA-job 8064 E -308.844931314237
  O          -3.11186307174536      0.09828074845522     -0.02606516109917
  O           3.11106154652101     -0.09722026724969     -0.02896183130467
  C          -0.66909720167639      0.36966288362654      0.02961635099022
  C           0.66834159485776     -0.36876449008644      0.02739090978660
  C          -1.86096435961883     -0.57784824409369      0.03620610514938
  C           1.86024242852968      0.57866765168247      0.03721021056531
  H          -3.19451190728924      0.66271728752058      0.75038533815103
  H           3.19439984960496     -0.66481984741307      0.74510688204821
  H          -0.72728576556602      1.02352542033578      0.90858597474125
  H          -0.74323520764240      1.01702979258702     -0.84899666789053
  H           0.72727800718661     -1.02655143690757      0.90338285471410
  H           0.74168934749534     -1.01224418229640     -0.85413981198522
  H          -1.81559200214393     -1.23150304835764      0.91775875760747
  H          -1.83430619691806     -1.22024562388574     -0.84601602521767
  H           1.81553141571665      1.22846214759155      0.92165171078421
  H           1.83292852268821      1.22494720849108     -0.84215559704051
