29
Coordinates from ORCA-job 8091 E -504.190143819729
  O          -3.97770299824535      0.73672737385847      0.01907211626132
  O          -3.06233160311810     -1.31677990402554     -0.00088949332696
  C           2.14297492984444     -0.39552536679665     -0.00438483520168
  C           0.90822894395006      0.50200380738169      0.00380531993277
  C           3.45799444283022      0.37941412042122     -0.00278090571703
  C          -0.40239071990677     -0.28018428620624      0.00215983852756
  C           4.69409587376954     -0.51731491935494     -0.01056375685812
  C          -1.62322086465217      0.62971861882220      0.01034207622937
  C           6.00348499193600      0.26718551517950     -0.00927145014144
  C          -2.93364166511704     -0.11916327781051      0.00861852664292
  C          -5.27955739636262      0.13217734043798      0.01793970733457
  H           2.11230915866178     -1.05927594517955      0.86697443232439
  H           2.10829057978833     -1.04882503010823     -0.88345804234954
  H           0.94270072061562      1.15568134524493      0.88314001638549
  H           0.93864448282437      1.16609114814191     -0.86785008091751
  H           3.48869353225954      1.04332748578415     -0.87458859165126
  H           3.49245516823210      1.03325771958379      0.87646911250327
  H          -0.44501629496925     -0.93295003492621     -0.87344372103866
  H          -0.44098484385096     -0.94324456078834      0.87020707478582
  H           4.66274995938124     -1.17981838720378      0.86089528635792
  H           4.65873721150847     -1.17018296117807     -0.88911691650656
  H          -1.61911553525233      1.28790692294259      0.88467489326944
  H          -1.62295290683688      1.29802877796924     -0.85633331909741
  H           6.07870546252650      0.90451281483489      0.87551901813052
  H           6.86922076708729     -0.39802659679740     -0.01459983213473
  H           6.07492984166842      0.91371410150785     -0.88767520654489
  H          -5.41092960602129     -0.49372245492411      0.90025789513208
  H          -5.98604550955597      0.95776097262065      0.02631102521888
  H          -5.41579412299522     -0.47995833943149     -0.87324618755051
