25
Coordinates from ORCA-job 8093 E -389.649384725581
  O           2.89451510769661      1.33981548363380     -0.17167715036990
  C          -0.99786505363884     -0.55603428240454     -0.01267804956713
  C          -2.25071335881776      0.31599642386002     -0.00195557634731
  C           0.29724077467533      0.25188825062481     -0.02637479955402
  C          -3.55091661582143     -0.48473423566073      0.01020031853159
  C           1.53964271362018     -0.62673651761984     -0.03448083365372
  C          -4.79691910728547      0.39692540904197      0.02126778360578
  C           2.85135245683840      0.13571556072150     -0.06627293093334
  C           4.11089057775741     -0.69634250058080      0.04802615515352
  H          -1.00964034550277     -1.21477463609330      0.86367709656488
  H          -1.02567035160525     -1.21644398729334     -0.88741414963805
  H          -2.22422984783387      0.97587760583169      0.87268500540980
  H          -2.23980857266604      0.97487249303925     -0.87763497484007
  H           0.31790839207404      0.90931327468263     -0.89891694343281
  H           0.33151563989100      0.91393554642966      0.84306642936198
  H          -3.57587200011833     -1.14329337511875     -0.86461211994016
  H          -3.55988525738667     -1.14281777417332      0.88569526593237
  H           1.55624466424094     -1.29318331921435      0.83634711160970
  H           1.53363474122461     -1.29873336587780     -0.90215198012837
  H          -4.81306140241694      1.04284648237158      0.90277373274527
  H          -4.82897907385484      1.04232561356599     -0.86017450525660
  H          -5.71061896035555     -0.20067999363460      0.02969913726663
  H           4.17275983352290     -1.12785775984849      1.05110129974755
  H           4.09311825795445     -1.53061231278574     -0.65698122118900
  H           4.98593478780790     -0.07501908349730     -0.12957610107860
