23
Coordinates from ORCA-job 8094 E -425.588580697979
  O          -3.97223173019887      0.68422011199041     -0.00268148439979
  O          -2.95313064108735     -1.27768511600861      0.12623642102594
  C           0.99222964797432      0.57029210757579     -0.03206729410564
  C           2.23355824466477     -0.31642203318381      0.02159366813739
  C          -0.31153415714293     -0.22046682728064      0.03339837237458
  C           3.54335933366310      0.46590447163132     -0.04290002079417
  C          -1.54214603134145      0.67512011401936     -0.02047509236489
  C           4.77801280997330     -0.42988806798708      0.01109164395959
  C          -2.85140596956520     -0.08861523989909      0.04267402984899
  H          -3.73621325512998      1.61843171426749     -0.06948525580212
  H           1.02643613969481      1.28926413477767      0.79490751561511
  H           1.01361384354858      1.16562274776175     -0.95245199124200
  H           2.21260693007367     -0.91201567732836      0.94118219429754
  H           2.20013152647547     -1.03517475555126     -0.80490421224711
  H          -0.35657110714582     -0.93732120767990     -0.78982119207155
  H          -0.34355637838665     -0.81471743441625      0.94961593655129
  H           3.56212089368096      1.06085626451179     -0.96227674396376
  H           3.57474209494452      1.18354109392091      0.78389521727769
  H          -1.52845394736607      1.39467770326921      0.80670968329269
  H          -1.54128692865401      1.27205818090125     -0.94018620956211
  H           4.80053768511967     -1.01227717940409      0.93559725937260
  H           4.78769788879252     -1.13586714850979     -0.82310598587634
  H           5.69886010741264      0.15456004262191     -0.03664845932393
