21
Coordinates from ORCA-job 8106 E -635.178984507414
  S           4.09758355888763     -0.33840595606609      0.04029920714758
  C          -0.01774983245903      0.51649356416383     -0.02749345059178
  C          -1.27438489158208     -0.34886190007253      0.03044154157226
  C           1.27461255820586     -0.29483574834725      0.06010097935880
  C          -2.57041810979036      0.45371742269389     -0.06043765828190
  C           2.51802823859090      0.58279656641748      0.01104018456823
  C          -3.82039831622546     -0.42030742399007     -0.00142102302181
  H           3.93363456530885     -0.89600272477348      1.25194949852482
  H          -0.01972489367412      1.09569030865387     -0.95780545929143
  H          -0.04507727779478      1.24898416569854      0.78712767382486
  H          -1.24592579804234     -1.08289239226682     -0.78282165788359
  H          -1.27244073300458     -0.92784781916009      0.96105535473009
  H           1.27927643340646     -0.87449647909919      0.98890850789150
  H           1.31636475043690     -1.02151943679896     -0.75564033483966
  H          -2.59697884219266      1.18702099480204      0.75256061986250
  H          -2.57069913510661      1.03166219529478     -0.99065260831895
  H           2.51697189140283      1.31173118704910      0.82257786236825
  H           2.55384260419712      1.14478261033892     -0.92462220280323
  H          -3.86121274404543     -0.98484667669997      0.93355730054094
  H          -4.73088368043495      0.17832347113511     -0.06864391576422
  H          -3.83446734608418     -1.14150992897310     -0.82249341959326
