43
Coordinates from ORCA-job 81277 E -625.471674613172
  O           1.78629634513904     -1.53006337621918     -0.05046807581481
  C          -2.03526122483238      0.50776739894128     -0.07636190213182
  C          -3.31810492810473     -0.31064681252927      0.04661559192623
  C          -0.76923378221938     -0.33810692240776      0.03206829149515
  C          -4.58849846672194      0.52845097621690     -0.06488262364597
  C           0.50388006216919      0.48766875661499     -0.08615656822211
  C          -5.87130197151451     -0.28952320318977      0.06022897309500
  C           3.07233604896543      0.48075913404344      0.08938638193444
  C           4.34385841712982     -0.34079646184979     -0.06885382479000
  C           1.78732270893726     -0.32057578009164     -0.01921028355585
  C           5.61155403939349      0.49560040191460      0.08330327489028
  C          -7.14322672084699      0.54814165818715     -0.05248554862878
  C           6.89385531888365     -0.31794514720347     -0.07833414824034
  C          -8.41940880684709     -0.27970614648093      0.07436415685647
  C           8.15915010021757      0.52130206027068      0.07752910216631
  H          -2.03730596870258      1.03982338808936     -1.03503131971042
  H          -2.02641772203922      1.28281071192073      0.69911860976970
  H          -3.32665912868587     -1.08617592876118     -0.72748612141846
  H          -3.31705060190022     -0.84101123046027      1.00557952725082
  H          -0.76212578206084     -0.87440509560009      0.98525478196489
  H          -0.76805191535238     -1.10994630087876     -0.74108629614325
  H          -4.57827858471641      1.30512393268212      0.70862066467995
  H          -4.58942504468319      1.05757908482113     -1.02487767485276
  H           0.52035008551543      1.03441619716589     -1.03787263258989
  H           0.54398141277976      1.26428834180608      0.68631112063133
  H          -5.88172559275941     -1.06703555254987     -0.71244239320788
  H          -5.87134786956621     -0.81822399582115      1.02051310449677
  H           3.05600027500543      0.97922415222064      1.06723036092327
  H           3.03455145949480      1.29511275636035     -0.64331619205682
  H           4.34002809563521     -1.15049547849151      0.66458668665924
  H           4.33667775075369     -0.82851878957776     -1.04779712046929
  H           5.60631557889063      1.30857875677511     -0.65260812967664
  H           5.61403503717369      0.97948802377243      1.06735599634437
  H          -7.13182207390538      1.32460429940398      0.71992874109335
  H          -7.14227311760063      1.07547838662527     -1.01244446807477
  H           6.89832542443453     -1.12966630208155      0.65651050234199
  H           6.89126157929006     -0.79962826970355     -1.06171184876797
  H          -8.46083989220667     -0.79203215546150      1.03898574248930
  H          -9.31186924208349      0.34365130639085     -0.00989526371546
  H          -8.47144118348220     -1.04317800382978     -0.70607060308979
  H           8.20208662154055      0.98806015893901      1.06499173053730
  H           9.05897303864574     -0.08509697484479     -0.04288533465424
  H           8.19471822083677      1.32115204487157     -0.66664796808885
