28
Coordinates from ORCA-job 8148 E -370.962511659034
  N          -0.00015019783835     -0.25671315896946      0.07360264698385
  C           1.21988884161156      0.52976726097214     -0.03305654386321
  C          -1.21955218883730      0.53044197009669     -0.03530939681401
  C           2.46040417399821     -0.35005386404825      0.03194800955535
  C          -2.46066920093585     -0.34867592229618      0.02760163243839
  C           3.76365515872693      0.44209330569745     -0.03956336816254
  C          -3.76335752088944      0.44414025339514     -0.04649623427690
  C           5.00367682871140     -0.44604310482949      0.02099264879160
  C          -5.00395560584159     -0.44333112912373      0.01194132494159
  H           0.00030805739305     -0.97934156987487     -0.63896606908630
  H           1.24829086951041      1.13568844895523     -0.95681911849937
  H           1.23343839211728      1.24137130571689      0.79949424602886
  H          -1.23416145802267      1.24216526072231      0.79712584296779
  H          -1.24597015572533      1.13627914354054     -0.95918412270168
  H           2.42830735260459     -0.93490604421331      0.95594583426794
  H           2.43305887464948     -1.07308605322970     -0.79269567591693
  H          -2.43218266773438     -1.07189831354756     -0.79684486407133
  H          -2.43055133421226     -0.93340994636710      0.95173961679092
  H           3.78081325096149      1.03146419311335     -0.96228046331909
  H           3.79092477942199      1.16419259083493      0.78325888108125
  H          -3.79180803672646      1.16640874075673      0.77614349221912
  H          -3.77843953111678      1.03335755511652     -0.96934426994761
  H           5.02820450366031     -1.02314667006971      0.94867945613041
  H           5.01876646047686     -1.15651522234566     -0.80944807828897
  H           5.92100570123326      0.14384373448545     -0.02902831231232
  H          -5.03049321551253     -1.02018411917196      0.93972829702908
  H          -5.92089252840916      0.14700464793719     -0.03993037797673
  H          -5.01786960327471     -1.15401629325360     -0.81833903398920
