19
Coordinates from ORCA-job 81569 E -402.299158774197
  O           1.89453638742514     -0.75442168191788      0.33999029123758
  O           1.00766371926475      1.13433558252468     -0.50031584185090
  N          -1.61588834392169      0.08074178888737     -0.11874987812072
  C          -0.44360743096016     -0.67938283349884      0.24020143513444
  C          -1.83546352483702      1.22198906841764      0.75623227499264
  C          -2.79227557601732     -0.76714427098386     -0.19490425562918
  C           0.86654175390144      0.03783974716469     -0.03011434864840
  C           3.20679682090266     -0.20999756244741      0.13352693498687
  H          -0.43408706883217     -0.99386981355647      1.30088584307931
  H          -0.41852832593402     -1.60207700403650     -0.34470936634023
  H          -2.02612126644852      0.91713691737034      1.80141697283972
  H          -0.96989011262901      1.87994981621960      0.73201601328290
  H          -2.70078217019655      1.78496600186636      0.40474336005198
  H          -3.06203434124452     -1.22139347535790      0.77569441419318
  H          -3.64328430250157     -0.17653693676183     -0.53648201051936
  H          -2.62703294824928     -1.57219963671913     -0.91295671014792
  H           3.89823349478688     -0.97250623840983      0.48141305546663
  H           3.36960489252903      0.00274181339927     -0.92265906501467
  H           3.33166234296193      0.71009071783969      0.70381288100611
