38
Coordinates from ORCA-job 8167 E -622.105043636555
  O          -4.54485106627540      0.51213382870870      0.02913505728042
  O          -5.93367913927127     -1.25697827208749     -0.04447118296436
  C           1.66064570996606     -0.42707427134659     -0.02450677021832
  C           2.94637170080986      0.39510506167593      0.01256798087814
  C           0.39406597433739      0.42376611993265      0.01794911742033
  C           4.21363321597838     -0.45509472308267     -0.02958657581278
  C          -0.89087875395815     -0.39999288383999     -0.01917746740705
  C           5.49972116365777      0.36635337296464      0.00716841576884
  C          -2.15325849222926      0.45890402103592      0.02337456088243
  C           6.76810717026382     -0.48312716537327     -0.03479978746448
  C          -3.41139117042860     -0.38113572269968     -0.01414155326789
  C           8.04778878171275      0.34813759893420      0.00252865369394
  C          -5.76208673689028     -0.06556727333210      0.00768963757224
  C          -6.85204767371546      0.97130980564208      0.05699248790155
  H           1.65176482235401     -1.04400122797345     -0.93028961366375
  H           1.65453301406950     -1.12719467232564      0.81864699998434
  H           2.95234836072700      1.09517870811665     -0.83068515242288
  H           2.95491540942257      1.01229637024626      0.91822137129244
  H           0.40181609995890      1.04032528189770      0.92377567026327
  H           0.39905388771029      1.12353327249640     -0.82527169929160
  H           4.20744089650391     -1.15503194700792      0.81382069526292
  H           4.20470296939667     -1.07253522451100     -0.93510595613316
  H          -0.89839614181477     -1.01628450158876     -0.92504672984872
  H          -0.89578948313106     -1.09923108656978      0.82432720195144
  H           5.50653150674538      1.06650954473840     -0.83630080265484
  H           5.50922800112130      0.98412661252797      0.91268602515860
  H          -2.15765324803085      1.06969130854405      0.93091503565541
  H          -2.16048136674769      1.15239595276530     -0.82262207609933
  H           6.76036382093063     -1.18215174005919      0.80827153191726
  H           6.75777737763097     -1.09972230236119     -0.93987826291809
  H          -3.46887383392899     -1.06398577071056      0.83584343037265
  H          -3.47125160638936     -0.98157908640796     -0.92410176022248
  H           8.09858027062529      0.95016599437836      0.91338897458231
  H           8.93751466744675     -0.28391511741883     -0.02851291903928
  H           8.09603890040610      1.03321522144626     -0.84777515438593
  H          -6.75180876295145      1.57371153703533      0.96101906802463
  H          -6.76217264296938      1.64562700979450     -0.79596178975666
  H          -7.82105960304339      0.48030536581476      0.04231233770845
