29
Coordinates from ORCA-job 81722 E -467.034622998914
  O          -2.03345689884190     -0.02872389105561     -1.51687622603738
  C          -0.49418507495533     -0.00270363123566      0.40734587577285
  C          -1.97204263396268     -0.00287563928881     -0.07962047488158
  C           0.27535853409980      1.25387859904764     -0.02688576324689
  C           0.27405229718843     -1.25591437189978     -0.03378748920867
  C           1.72490213220058      1.25524585628264      0.48106787754177
  C           1.72763392681123     -1.25682012939621      0.46261948608432
  C           2.44599267428464      0.00281995088686      0.07151550648687
  C          -2.72913668379587      1.22381054770855      0.43871443827415
  C          -2.70579578825252     -1.26610911718880      0.36346138727709
  C           3.58609637189647      0.01175267713133     -0.61212360088820
  H          -1.70442977947505      0.81183174667581     -1.85338937010163
  H          -0.53482734577804      0.00025093533674      1.50474007098677
  H           0.29702199703787      1.30642613283100     -1.12118658064924
  H          -0.22200770954399      2.15629996669911      0.33070629725268
  H          -0.21960284783919     -2.15512794182189      0.33513358090571
  H           0.25981769869638     -1.30972536883325     -1.12533198178554
  H           2.25282271115359      2.13966827265633      0.11963534515989
  H           1.70725826850325      1.31547291375543      1.57673524954462
  H           1.72196867851596     -1.33445971197495      1.55768922968008
  H           2.25592601258612     -2.13341809380953      0.08316380947403
  H          -2.68452277848821      1.28236272691870      1.52846161417010
  H          -2.32050709529801      2.15211235100893      0.03688936780524
  H          -3.77544803405231      1.16190455885128      0.13833671526706
  H          -2.62645690874967     -1.40114223056506      1.44370600310085
  H          -3.76091756885527     -1.19030647041223      0.09939766460341
  H          -2.30125274403062     -2.14697417373810     -0.13093627166292
  H           4.07493656595949     -0.90829753852223     -0.91017569942486
  H           4.07143602298484      0.93914407395177     -0.89308306150059
