29
Coordinates from ORCA-job 8176 E -504.183125077780
  O          -3.79709082352297      0.73139363339130      0.05346162159811
  O          -5.29293042760192     -0.96352628258942     -0.00508188907046
  C           1.13771448007598      0.44637700285055      0.01519301892026
  C           2.36934780400701     -0.45439097903363     -0.02665897680648
  C          -0.17868303016522     -0.32676052912554     -0.00753850713840
  C           3.68661547947984      0.31658264968509     -0.00337659034612
  C          -1.40556548401173      0.58245576538407      0.03444801288440
  C           4.92014013507532     -0.58270508211402     -0.04612322893779
  C          -2.69484714783721     -0.20824011434374      0.01074545019878
  C           6.23159049620831      0.19791910608640     -0.02154776969375
  C          -5.02478716566104      0.20525166231720      0.03937855611418
  H           1.17489890270570      1.06990431202829      0.91542588005877
  H           1.16519820063104      1.13788754111751     -0.83429704548868
  H           2.34025949833590     -1.14656187553349      0.82256587520276
  H           2.33097695979098     -1.07799122310781     -0.92709037439858
  H          -0.21583995016284     -0.94990071268270     -0.90793869621484
  H          -0.20622396779753     -1.01778190320011      0.84224138767332
  H           3.71581588871928      1.00961975961655     -0.85216255911110
  H           3.72566207570580      0.93999759698239      0.89740044465911
  H          -1.38102847047848      1.20006760206927      0.93684001222236
  H          -1.39055103969642      1.26825180234664     -0.81749527191724
  H           4.88959801225600     -1.27500217376951      0.80193165486418
  H           4.88037624620888     -1.20453698649906     -0.94675358246729
  H          -2.77723404625497     -0.87978568515729      0.86739551016233
  H          -2.78696591685506     -0.81112327381025     -0.89459650552842
  H           6.31116823724579      0.80370861262602      0.88470889690889
  H           7.09539482109253     -0.46901046085971     -0.05278250289316
  H           6.30208376575926      0.87452328034676     -0.87703172813948
  H          -5.76512253325225      1.01651695497821      0.07501990668435
