29
Coordinates from ORCA-job 8177 E -541.258497685372
  O          -1.07345857986344      0.30892095732284      0.07024456508927
  O           2.49249349388030      0.04908275564573     -0.23034428028908
  O           5.10235531716950     -1.09415076631079      0.49265892786721
  C          -3.46010987862218      0.24963026663508      0.15931605558115
  C          -2.20098636984680     -0.47763540965781     -0.26840199010965
  C          -4.73085073253805     -0.53131905400493     -0.16936457010338
  C           0.15252331142251     -0.28992272987313     -0.29074416292823
  C           1.26496165875152      0.64976061406083      0.12547816903805
  C          -6.00024347224775      0.19986742416720      0.25980693164718
  C           3.61520232122373      0.82834265884989      0.10955389516543
  C           4.88560758010840      0.09092790971887     -0.25710285172529
  H           5.10127293738453     -0.87186361243798      1.43030485369089
  H          -3.40708230801711      0.44050706767274      1.23535785711458
  H          -3.48509993699423      1.22705356331653     -0.33173226184646
  H          -2.21424904791453     -0.66327258682798     -1.35271965042991
  H          -2.13542289255296     -1.45703421836683      0.22835545909820
  H          -4.76930025262382     -0.72732382842606     -1.24605145535818
  H          -4.69198749315655     -1.51131945486565      0.31767156535179
  H           0.27911789836755     -1.25905514986813      0.21002473443082
  H           0.19941658553729     -0.46497581900399     -1.37403502042198
  H           1.21639365014594      0.82623080880349      1.20855362098254
  H           1.14202618770815      1.61874830696562     -0.37729512377035
  H          -6.00342393456781      0.38081758755983      1.33746037045018
  H          -6.08163910551513      1.16934792409351     -0.23775493900639
  H          -6.89449856669216     -0.37663211560059      0.01561447929372
  H           3.59230919080070      1.79152806678892     -0.42357273592071
  H           3.60903741568001      1.05525245758986      1.18872129374622
  H           5.72936118455085      0.78689288179999     -0.15341983572747
  H           4.83307683842157     -0.22289150574709     -1.30047590091011
