53
Coordinates from ORCA-job 8181 E -818.619437844808
  O          -8.93891444621077      0.64420348692377     -0.03419576907067
  O          -7.96098890277748     -1.38020074773699     -0.01265378522465
  C           2.31950114742057     -0.38743495240213      0.00796286082647
  C           1.05757527290308      0.47122294984789     -0.01669401378945
  C           3.61094246312288      0.42640598606439     -0.00781226299683
  C          -0.23363579723863     -0.34293579292775     -0.00041852064130
  C           4.87272047057559     -0.43251575030560      0.01776527251754
  C          -1.49565393088779      0.51561221874646     -0.02453536849517
  C           6.16439650758769      0.38098643308868      0.00169991137944
  C          -2.78623413445509     -0.29941367198853     -0.00837745070482
  C           7.42601749366041     -0.47822137673407      0.02793367363779
  C          -4.04794360096147      0.55948663850642     -0.03115480242780
  C           8.71789980566162      0.33474337499989      0.01139176951421
  C          -5.33398241553064     -0.26236295951878     -0.01588148938211
  C           9.98038518054292     -0.52409716086243      0.03883187047192
  C          -6.58219590973543      0.60940179667864     -0.03751565994991
  C          11.26598796790747      0.29875485503618      0.02146703926453
  C          -7.86903891280626     -0.17923149772024     -0.02621964237320
  C         -10.22157613022676      0.00001466802651     -0.02665133334041
  H           2.30513125960951     -1.02550206906552      0.89900529088765
  H           2.31052896184042     -1.06794906332259     -0.85116928845118
  H           1.06669211779359      1.15195799223985      0.84231374008249
  H           1.07162953066530      1.10909414951297     -0.90793060470518
  H           3.62566185658664      1.06403230734862     -0.89919064673295
  H           3.61974453068784      1.10727426115970      0.85108106564994
  H          -0.24298718145367     -1.02341189745797     -0.85952351612936
  H          -0.24761940803858     -0.98099344472983      0.89059135409603
  H           4.85801161390542     -1.06991693902966      0.90928828114583
  H           4.86383436493570     -1.11363213383315     -0.84090994024120
  H          -1.48652587108939      1.19592665733778      0.83480667382894
  H          -1.48180340534571      1.15367288126390     -0.91564728503782
  H           6.17937120435167      1.01808687318893     -0.89003625345337
  H           6.17323428515898      1.06236035324166      0.86018038110707
  H          -2.79667837930012     -0.97894680995462     -0.86793149946589
  H          -2.80055790745793     -0.93798030801515      0.88199866230533
  H           7.41107610611309     -1.11503479877404      0.91989988855466
  H           7.41694117453816     -1.15986316861926     -0.83035434098009
  H          -4.03795561390837      1.23880315551926      0.82916274416006
  H          -4.03358856618395      1.19899159009294     -0.92141843931519
  H           8.73408660634543      0.97112656944411     -0.88106470622622
  H           8.72748219965250      1.01719548066107      0.86924677046119
  H          -5.35267183908116     -0.94015627375505     -0.87307166822282
  H          -5.35615619913621     -0.90190377127217      0.87023235627757
  H           9.96365675252787     -1.15896302706289      0.93109816131635
  H           9.96997981734540     -1.20562588502399     -0.81843004597365
  H          -6.60322217696289      1.29050632186710      0.81876571128361
  H          -6.59757774895834      1.25401941121453     -0.92188718674811
  H          11.31692968509464      0.96599019638009      0.88570405545523
  H          12.15129628059224     -0.33998897896580      0.04165141660998
  H          11.32322820970552      0.91890620962514     -0.87677507423337
  H         -10.33590586265002     -0.61325617810633      0.86682946840853
  H         -10.95310519849132      0.80349757202759     -0.03493755096607
  H         -10.33676832794423     -0.63232973285949     -0.90662927396356
