28
Coordinates from ORCA-job 820378 E -483.084401288671
  O          -2.49370051884136     -0.54607515939590     -1.06718481854451
  N           1.31634149204981      0.85907715881642      0.31500419154003
  C           0.14643701642467      0.08453318400588     -0.13079830926264
  C           0.36084623965216     -1.40575073307795      0.15596056555897
  C           1.64617951726153     -1.93797684787716     -0.46611110261607
  C           2.54763973436588      0.38506919869150     -0.31876256429578
  C           2.82503237630226     -1.08040068501366     -0.02230556740484
  C          -1.12895229443252      0.55774746813187      0.56470510915242
  C           1.17873812585374      2.29016097791612      0.09606883275212
  C          -2.40581985497304     -0.07694231368952      0.04460123590200
  C          -3.58261908415495     -0.06059994299453      0.99351414439997
  H           0.00499232275687      0.21004051726978     -1.21838228932248
  H           0.40022551380202     -1.54039726374368      1.24247356490974
  H          -0.49900878014238     -1.96162024306365     -0.21785036303813
  H           1.79735171187348     -2.98452681002345     -0.19096595706982
  H           1.56151943883722     -1.90645994335230     -1.55775331112032
  H           2.50299017023763      0.53073446654488     -1.41547167022104
  H           3.36915757708934      1.00330718961613      0.04886816073392
  H           2.98691604312806     -1.20112809365234      1.05302120735763
  H           3.74528606005380     -1.38354214499108     -0.52804993663289
  H          -1.04714076404943      0.40663472733545      1.64502798586345
  H          -1.28202114721828      1.63254637055827      0.42569361690937
  H           0.39830540493223      2.71599157924632      0.72483154597354
  H           2.11426048197571      2.78149039190135      0.36495267492944
  H           0.95370039057862      2.54340485567513     -0.95525452714450
  H          -3.69637398124228      0.92067416850968      1.46014479643471
  H          -4.49388747853335     -0.33722023149783      0.46775972140564
  H          -3.39844871358744     -0.77670984184573      1.79990506285008
