54
Coordinates from ORCA-job 8217 E -707.432839602782
  C          -0.56916878495186      0.32031445550661      0.00102670887299
  C          -1.86167382354931     -0.49200491614776     -0.00383601398639
  C           0.69171698184111     -0.54024156460734     -0.00463776278437
  C          -3.12246810516976      0.36869928234360      0.00153092515142
  C           1.98406299414928      0.27231493556682     -0.00002651506304
  C          -4.41507833622286     -0.44342955080988     -0.00308472921892
  C           3.24500916438147     -0.58813600339174     -0.00577784332619
  C          -5.67578021760434      0.41741229520136      0.00185781541169
  C           4.53704270038676      0.22483721725061     -0.00062874132776
  C          -6.96849579345262     -0.39464354768880     -0.00292038267099
  C           5.79792675914793     -0.63551205891373     -0.00685521573737
  C          -8.22917913075181      0.46606642115074      0.00211600999419
  C           7.08805235897625      0.18106941858263     -0.00099046690972
  C          -9.52292312101513     -0.34532554724114     -0.00292496603257
  C           8.33928122002377     -0.68965205423210     -0.00775079277655
  C         -10.77678239120895      0.52521592204134      0.00265834982029
  C           9.65325009888532      0.03512856418274     -0.00258008433979
  C           9.83595217666473      1.35015787633880      0.00673009559966
  H          -0.55686493549873      0.98528322603556     -0.87018545718143
  H          -0.55654327650806      0.97424088339334      0.88055263642262
  H          -1.87425691281558     -1.14610697912072     -0.88324477420280
  H          -1.87408870144847     -1.15682305820847      0.86749707591164
  H           0.67959266714787     -1.20504903855445      0.86670236078642
  H           0.67905416309688     -1.19428451664992     -0.88407960091653
  H          -3.10974570183773      1.02292278510930      0.88084367472473
  H          -3.11005156949054      1.03342777087959     -0.86986751161249
  H           1.99618546732540      0.93713364092770     -0.87134132532294
  H           1.99675835704554      0.92635347359973      0.87939916421538
  H          -4.42766666663516     -1.09790244265871     -0.88222084011046
  H          -4.42758645519382     -1.10793491016316      0.86848618161855
  H           3.23281888100429     -1.25323606377884      0.86533522685263
  H           3.23256009817180     -1.24185793871293     -0.88545340335650
  H          -5.66321174414827      1.07178179536929      0.88105590367510
  H          -5.66308164997509      1.08195764962103     -0.86966724768451
  H           4.54925538919082      0.89008054140701     -0.87155423895800
  H           4.54971712582753      0.87820002224788      0.87923479301737
  H          -6.98102492666295     -1.04896282680916     -0.88219177655641
  H          -6.98103262061567     -1.05924415857201      0.86859934543349
  H           5.78542903167331     -1.30097490413413      0.86394510950588
  H           5.78535356147569     -1.28838905726145     -0.88712197106170
  H          -8.21741064806810      1.12049548678980      0.88151322996285
  H          -8.21720327628190      1.13104798624682     -0.86932357439223
  H           7.09959445388123      0.84436535931278     -0.87194885121495
  H           7.09992606334190      0.83123917701079      0.87980132487601
  H          -9.53405439618011     -0.99826656441094     -0.88216136707427
  H          -9.53393139057217     -1.00936470213323      0.86796019899705
  H           8.31611744590155     -1.36600434843929      0.85642496545242
  H           8.31573618765884     -1.35292805964571     -0.88200088456384
  H         -10.80668553475734      1.16502122678016      0.88836157188447
  H         -10.80661288324266      1.17638780232218     -0.87472456818098
  H         -11.68547848465809     -0.08012954525206     -0.00126609063110
  H          10.52998729789863     -0.60828272600328     -0.00709585675804
  H          10.83105345719940      1.77650876545503      0.00975044346864
  H           9.00937937621977      2.04959010286768      0.01171374229739
