23
Coordinates from ORCA-job 82452 E -500.560979843825
  O          -4.67877644667972      0.20609882798852      1.00574544299787
  O           4.05506184142587      0.04943105615588      0.65114490784893
  C          -1.39946983552041     -0.00182573048954     -0.93151902653214
  C          -2.33306380507156      0.07793481932880      0.28347712106112
  C           0.05663166451345     -0.00720409302321     -0.54706112240224
  C          -3.80332134791399      0.06697513017157     -0.10845185380493
  C           0.75223439437039      1.18564320828456     -0.34480318270940
  C           0.74245734084380     -1.20021697467177     -0.33642804758893
  C           2.07970856809176      1.19536012411654      0.05401056962423
  C           2.07320146989100     -1.21014940910938      0.06367844656242
  C           2.74568125278469     -0.00876742869997      0.26122274729119
  H          -4.51490422595886     -0.52187504481054      1.61528879390234
  H           4.39932823221633     -0.84433050068455      0.75752148995663
  H          -1.62976548924916     -0.90433614581329     -1.50517709988970
  H          -1.60151712947525      0.84656997984858     -1.59199486650774
  H          -2.12565144624517     -0.76746182273420      0.94968590827846
  H          -2.12218855470287      0.98592384095323      0.85442954823504
  H          -4.03486694839968     -0.84698844225916     -0.67245241515362
  H          -4.02598658423335      0.91469988489121     -0.75976895430193
  H           0.24493769062296      2.12997366595335     -0.50568294505661
  H           0.23203853840627     -2.14398119203617     -0.49046776577787
  H           2.61369477665385      2.12417338443357      0.20418261360612
  H           2.58850004362965     -2.15238113779402      0.21668169036075
