16
Coordinates from ORCA-job 8257 E -271.711164604940
  O           1.15184215151466     -0.13002279750967      1.22951628003280
  C           0.41005688310503     -0.00662030373226     -0.00358983211233
  C           0.39097969714749      1.45474144769716     -0.44383892809133
  C           1.17668738192353     -0.86439448265442     -1.00810775815133
  C          -0.96342782137588     -0.59207677232139      0.22365448659497
  C          -2.13306002509284     -0.00105768919736      0.01670041947940
  H           0.66058135184844      0.33365165651793      1.91800672032822
  H          -0.12670853928386      2.07899068355673      0.28748308628136
  H           1.41591602332391      1.81394136817858     -0.53552867906331
  H          -0.10587419223115      1.57605641405178     -1.40765021106144
  H           1.20684809521064     -1.90197526384865     -0.67414171256330
  H           0.70018481423336     -0.82428830767940     -1.98802276226838
  H           2.20190111744192     -0.50163356096692     -1.09539442372655
  H          -0.93797700016697     -1.60611470782883      0.61400398381400
  H          -3.06321436691699     -0.51458799874320      0.22494189003860
  H          -2.21406257068128      1.00690131447992     -0.37028655953138
