11
Coordinates from ORCA-job 8299 E -268.350362232861
  O          -2.00154153137347     -0.19026603349614      0.31864211193853
  O           0.23133069592659      1.22546443588964      0.16288419910252
  C          -0.81045896100682     -0.89248824415931      0.11024637787680
  C           0.39444153292306      0.02752980232111      0.08085916251958
  C           1.75472578599948     -0.60628078437287     -0.03026734981581
  H          -1.75457061768837      0.74968326791905      0.33598794992817
  H          -0.65749738232028     -1.64402404446383      0.89702247366171
  H          -0.83555946563820     -1.43928517139873     -0.84422664517219
  H           2.09814904600608     -0.86934436995016      0.97451611759002
  H           1.72620499029495     -1.52429950404534     -0.61914786321716
  H           2.46236890687697      0.09971264575659     -0.46055353441217
