74
Coordinates from ORCA-job 83489 E -2176.342330395627
  O          -3.31387736671547     -0.52291841038525      0.17705031989216
  O          -3.35220660559981      2.11919290477292     -0.17913574623309
  O          -1.96758862031201      2.61473102559515     -2.00672755729397
  O          -6.65927475369885      0.80918175973734      0.64909257665385
  O          -2.11482235578367     -2.14566083849845      1.20240442806304
  O          -6.32740570185675     -0.79813006695165      2.96085393437285
  O          -4.48853820317900     -2.95677052506803      2.64691142968201
  O          -1.30930930766604      5.02218227657492     -0.40333490147339
  O           0.45375298976992      3.58432054690701      1.19176753252551
  O           1.21521523128939      1.53561254974520     -0.57590729713350
  O           2.41715504041135     -1.37066818648933      0.50767009630583
  O          -0.41580533276980     -2.35250608723636     -3.24539349744262
  O           2.06069208082037     -1.66360364530951     -3.56520883523086
  O           5.41523455735011      2.06324051253596      2.46498286579105
  O           7.90703984580585      1.09454946324274      2.24661941600682
  C          -4.55699785766011      0.06517330119873     -0.19324990469322
  C          -5.40792151175696      0.28292225202505      1.05652350187999
  C          -5.58594806329398     -1.04648453018847      1.77444543260921
  C          -4.24028614381051     -1.67965096392006      2.07806883591577
  C          -1.73118207270446      3.78061691381180      0.12979776099887
  C          -2.65494523482953      3.11652449847031     -0.89295190155808
  C          -0.53564559725733      2.87347375793887      0.42609764746327
  C           0.13920425992635      2.42365861412148     -0.85777191684820
  C          -3.41171934019460     -1.77213665073145      0.80088342045870
  C          -4.23015942668417      1.32762811948222     -0.96270352380107
  C          -0.88332922523869      1.70837321762258     -1.73619700215933
  C          -0.32405720618073      1.28940580203282     -3.07701603897535
  C          -1.10080612635027     -2.09259552018095      0.28281258050293
  C           0.15424953029441     -1.81437985858592      0.81349294470222
  C           1.22820042638867     -1.69238802322598     -0.04563937970125
  C          -1.30260380321061     -2.30518665320251     -1.07517534892587
  C           3.59415060742394     -1.53021458226021     -0.30295632090982
  C           1.06864878391692     -1.86232082524394     -1.43676494583167
  C           3.37067052386995     -0.94597468933719     -1.69413376520604
  C          -0.21832919289309     -2.19266023804605     -1.93338889286400
  C           2.14514433354971     -1.53793479658036     -2.33837245427507
  C           4.74535323782948     -0.88095511285855      0.41372398749558
  C           4.55215990852925      0.28950801338294      1.14401460768065
  C           6.02398806129674     -1.41052407674528      0.29548024114682
  C           5.62263729010107      0.92646601378279      1.74695704228132
  C           7.10656355987573     -0.77060267095669      0.89169195685787
  C           6.90918131571565      0.39292268901439      1.61374926727924
  H          -7.24007332492322      0.79629031856842      1.41983359819100
  H          -6.40931064169339     -1.63344041611308      3.43686477067543
  H          -3.64691447086173     -3.33238907409475      2.93043350966673
  H          -0.52145174214636      5.28406177410877      0.09114232007980
  H           0.23023080248733      3.53041417990405      2.12695338126472
  H           1.74702695066261      1.95965218362133      0.10924511897549
  H           0.45208734398122     -2.17035838414328     -3.69115632364709
  H           6.26686213123744      2.36659524602291      2.80722147705314
  H           8.75692708779058      0.66369261460139      2.10844983646555
  H          -5.11001960421718     -0.60264518502447     -0.86938037285618
  H          -4.88925346647967      0.98348564328177      1.72075951200616
  H          -6.15187246053954     -1.72086628508986      1.11662959431352
  H          -3.69198142054913     -1.03905586363353      2.77752463234243
  H          -2.30998071682045      3.93348901844016      1.04962345511248
  H          -3.34553855988242      3.85769126691743     -1.30803752593856
  H          -0.87262733449610      1.98747152601628      0.97066411495553
  H           0.50556426966068      3.30454390073078     -1.39701506695588
  H          -3.84088782513834     -2.52087599082028      0.11785178767570
  H          -5.15681091131689      1.86935889131881     -1.17945488852492
  H          -3.75053832932959      1.05578998272499     -1.90426436423312
  H          -1.25861050962806      0.83486943410578     -1.19255951816448
  H           0.54895583456538      0.65579677214679     -2.94202403796029
  H          -1.07030559728266      0.73237252106721     -3.64295253764600
  H          -0.03291256459602      2.16996740632886     -3.65219410796249
  H           0.27813588916167     -1.65840719547467      1.87433991551511
  H          -2.27639022627095     -2.51042142863419     -1.49054541600693
  H           3.78334740340796     -2.60658886719875     -0.39440338756865
  H           3.20659154672421      0.13346698162187     -1.61343685167037
  H           4.24045882053977     -1.11514522055118     -2.32737551373777
  H           3.56148949625832      0.70233092161069      1.26867270745836
  H           6.18489265757992     -2.32519965234652     -0.26089800955111
  H           8.10440293759617     -1.18501930000678      0.80086959466352
