22
Coordinates from ORCA-job 8434 E -574.612692544010
  O          -2.13671922732223     -0.37701707071224     -0.01270844704476
  O           4.16940495571790     -0.61915759020282      0.04654752193641
  O          -1.69361409160822      1.82825531359936     -0.05503878502799
  C           0.12313070010271      0.28465481241419     -0.00715867396736
  C           1.09405403398536      1.28962267108293     -0.01959182500551
  C           0.52953064486066     -1.04929472095518      0.02399813502470
  C          -1.30270500290096      0.68411324519740     -0.02775696596336
  C          -3.54675249976895     -0.07638067344681     -0.03077345965556
  C           2.43925159799503      0.97665623230992     -0.00146972739375
  C           1.87609408123585     -1.37312862692791      0.04230963817069
  C           2.83417383934486     -0.36042279302824      0.02962960639516
  C          -4.29376580302835     -1.38969555583350     -0.00715910352725
  H           4.31770906280036     -1.57168039224666      0.06762882461736
  H           0.76945388570861      2.32077141794611     -0.04374982268165
  H          -0.21339363088506     -1.83338623900824      0.03382541359450
  H          -3.78377891434622      0.54520957141429      0.83415443836903
  H          -3.76955763962662      0.50564546340390     -0.92647786177677
  H           3.19725773436800      1.74798767381789     -0.01088367738381
  H           2.18687083372759     -2.41180019294614      0.06649205673853
  H          -4.05574576405580     -1.95802396661913      0.89321705517936
  H          -5.36903411441701     -1.20208518355776     -0.02005722964310
  H          -4.04152468188747     -1.99815339570134     -0.87692511095487
