24
Coordinates from ORCA-job 8441 E -687.946981831079
  O          -3.55088844233828     -0.77226254586748      0.00046546551417
  O           3.55091175001562      0.77231319958850      0.00024176401953
  O          -3.37764844994635      1.46869364461352     -0.00090932304914
  O           3.37768171402396     -1.46864326703741     -0.00149866399772
  C          -1.38291329004404      0.15567201524667     -0.00040235096645
  C           1.38294399640395     -0.15562514281284     -0.00054194774861
  C          -0.55205201777778      1.27568729240291     -0.00036095766805
  C           0.82386810671945      1.12317042721948     -0.00039529597614
  C          -0.82383430121468     -1.12312514084580     -0.00053542239624
  C           0.55208647512373     -1.27564026705983     -0.00063996881843
  C          -2.85521084916556      0.38019537301129     -0.00035438973277
  C           2.85524086685104     -0.38014574077258     -0.00065908143155
  C          -4.97939594096154     -0.63483602326801      0.00052672313137
  C           4.97941907737979      0.63489715403153      0.00009865435572
  H          -1.00385063890556      2.25773864126022     -0.00030334438135
  H           1.46919923027584      1.98902472268424     -0.00031525115773
  H          -1.46916341300493     -1.98898190022269     -0.00056055311137
  H           1.00388457440710     -2.25769200687830     -0.00080311422041
  H          -5.30906298186564     -0.09430438138896      0.88716552672026
  H          -5.30930750714132     -0.09591670196860     -0.88700673170458
  H          -5.37000447760122     -1.64857239321444      0.00146496163606
  H           5.30920684187880      0.09426285349502      0.88662953994753
  H           5.30921982669891      0.09608821153477     -0.88754252107797
  H           5.37002185018872      1.64863597624879      0.00110728211387
