17
Coordinates from ORCA-job 8446 E -761.934863043273
  S          -1.31868260914506      1.54208579383476      0.09764784203440
  N          -1.20958649727470     -1.04267441370724     -0.05310514454527
  C           0.25252358213138      0.80359848642563      0.04943807996483
  C           0.09834142196623     -0.59567697148263     -0.03142933751597
  C          -2.04608664224204     -0.06517975916647      0.00651542879147
  C           1.51128754774107      1.39457983500323      0.07957615162722
  C           1.22960411807344     -1.41075214802986     -0.08260123066175
  C           2.62233144520075      0.56763329429855      0.02776296496628
  C           2.48199399580628     -0.82299148613166     -0.05261767586403
  C          -3.52867671016132     -0.22203700298309      0.00224175103102
  H           1.62306300801833      2.46874218744458      0.14165628694119
  H           1.10693300588728     -2.48364424069670     -0.14458005304910
  H           3.61195871159454      1.00508670806549      0.04987935830844
  H           3.36670047345250     -1.44501618226622     -0.09174405023506
  H          -3.97028628933278      0.19384397718454      0.91034840554758
  H          -3.97588702451662      0.29512446495584     -0.84933893542679
  H          -3.77032353719929     -1.28135454274873     -0.05796784191446
