22
Coordinates from ORCA-job 8467 E -574.578195841935
  O           1.99492471334646      0.15749182268043     -0.15579725504458
  O           1.62784517282343     -2.42273233825861      0.00451369670120
  O          -2.81926946367497      2.13211401218976     -0.26832982458226
  C           0.70729287456292     -0.25328895558364     -0.12782738475783
  C          -0.39873450128048      0.57325377704577     -0.17683799311942
  C           0.51342082635906     -1.65241767769616     -0.04086280894554
  C          -1.69368038847964      0.03681654246526     -0.14098315034649
  C           2.25374673445112      1.55917237627901     -0.24242614207296
  C          -0.76999690576759     -2.17780134178956     -0.00572006945004
  C          -1.87451704391883     -1.33761099815348     -0.05549946737850
  C           3.75340331715421      1.74751702761812     -0.25574059750033
  C          -2.86196646104144      0.92383131653832     -0.19349753894364
  H           1.37319241468258     -3.35106386945599      0.06285337368495
  H          -0.30039540587159      1.64637709871947     -0.24356902541358
  H           1.79719022954439      1.95855591079571     -1.15429309020804
  H           1.79912824203853      2.06757642077208      0.61446301069807
  H          -0.89873890490729     -3.25251616546245      0.06107554895721
  H          -2.87512531107510     -1.75105257449199     -0.02780796072645
  H           4.19984449162872      1.34711773552376      0.65510971262443
  H           4.19779860507986      1.23763047831066     -1.11120119952993
  H           3.99280991063770      2.81029125162980     -0.32188809815350
  H          -3.83798214629205      0.39573515032372     -0.15887573649278
