20
Coordinates from ORCA-job 8468 E -610.513934682635
  O           2.10369272798260     -1.34627244596963     -0.48758884996021
  O           2.77844249564850      1.25530495897918      0.08755309726867
  O          -3.59517959496330      0.53481436511427     -0.18017614521746
  O          -2.91235824054672     -1.55397569385407      0.09587393670214
  C           1.13918863798397     -0.43096992624352     -0.18034731145635
  C          -1.21429970141835      0.10778026185711      0.02501346397149
  C          -0.18906404864431     -0.81215512728290     -0.20393770940534
  C           1.46425037687016      0.90946631978417      0.09334394358018
  C          -0.88037841296788      1.42967749135998      0.31258883431188
  C           0.44870877645351      1.82370470484841      0.35061490688494
  C          -2.61702064394990     -0.39539756841688     -0.01280146760348
  C           2.96220141628996     -1.73268128927899      0.59028768364689
  H           2.86730531639201      2.19767704434177      0.27112664442087
  H          -3.21070908900777      1.39359701924514     -0.39490078555133
  H          -0.43566814851030     -1.84364133905634     -0.41320934936109
  H          -1.64023595500575      2.16351916132994      0.55173247646433
  H           0.70394177247759      2.85246687774061      0.57943090544404
  H           3.53358212357804     -0.88331392157126      0.96683857595598
  H           2.37665085304082     -2.17572423270038      1.40096509469115
  H           3.64056233829710     -2.47853366022660      0.18221905521270
