15
Coordinates from ORCA-job 84682 E -233.634044354101
  O          -0.43733607484430     -1.39673175102045      0.09920723868322
  C          -0.42103496872799      0.00353478816030      0.40292244337827
  C           0.75610991114565      0.60544829720527     -0.35144532637155
  C          -1.74530597868987      0.65613649640556      0.03028498940794
  C           2.10550003455729      0.03058774970766      0.06861185586664
  H          -1.17351106396710     -1.80421073118842      0.56740196221987
  H          -0.24729143796055      0.13503239813938      1.48136270853904
  H           0.59306116171149      0.43880917884084     -1.42088439750793
  H           0.74398607513280      1.68782648378139     -0.19315504752324
  H          -2.57521790810439      0.19706514631402      0.57439172891674
  H          -1.73782044776692      1.72084301881265      0.27418334930399
  H          -1.93472547876412      0.54442410769569     -1.03930285806494
  H           2.29677869731270      0.21487531806875      1.12910523219887
  H           2.13399024984833     -1.04655230131393     -0.09444134760501
  H           2.91894222911696      0.48499180039129     -0.50015253144190
