23
Coordinates from ORCA-job 84740 E -761.196364189150
  O           0.70470382890257     -0.00883330644791     -1.44071109517904
  O          -1.18361946686151      0.21859877831778      1.66958095199973
  O           1.90294965228522      1.56733645397074      0.45569052583528
  O          -2.30171233669102     -1.48113026579009     -0.21178496483564
  O           3.97771366674441     -0.03091840986710      0.60193159502069
  O           2.74112568193464     -1.88562492257930      0.57223876900727
  O          -4.34637018852987      0.20535618809102     -0.05810815523727
  C           0.42483717031790     -0.29903809601810     -0.06592211001426
  C          -0.89351843179984      0.39302037480593      0.29724373820908
  C           1.58164088368540      0.21939381585644      0.78526137097953
  C          -2.04887383438636     -0.13888068926612     -0.55887880123232
  C           2.81140032735647     -0.68855288192166      0.63730300977537
  C          -3.29150454664185      0.69739137980753     -0.36878802759560
  H           1.18644453390754     -0.75099996043807     -1.82321425283771
  H          -1.54791699250658     -0.67375594357076      1.76475926550325
  H           1.78389054629809      1.64590055369487     -0.50404486715374
  H          -3.26147701714693     -1.55398366779981     -0.07638044743934
  H           3.76860059928515      0.92140387926815      0.63076252300178
  H           0.32396879595402     -1.37323256008046      0.09378664297112
  H          -0.78469340559072      1.46747593199977      0.12783833343825
  H           1.28675788470933      0.20409757596594      1.83630545071919
  H          -1.75673843230964     -0.05226271382056     -1.61525959922173
  H          -3.18436491891645      1.78342348582177     -0.54587785571388
