18
Coordinates from ORCA-job 8487 E -460.065369180493
  O          -2.69971554902992      1.52882509307284     -0.02936461167673
  O           2.26670534164108      1.53680383625332     -0.10278861352986
  C           0.55554647250976     -0.08941948129682     -0.01535506705300
  C          -0.43469269507173      0.89028527644763     -0.03787837299815
  C           0.19787379875606     -1.43918497696570      0.04012972426845
  C          -1.77349128591464      0.52780376811993     -0.00527457888248
  C           1.98537500258188      0.35745538912065     -0.05254658119615
  C          -1.14301205598697     -1.79454760017834      0.07230962514719
  C          -2.13059735965440     -0.81916612532480      0.04997755419745
  C           3.07287468648162     -0.69431380772691     -0.02596616438575
  H          -3.58724725779580      1.15395091722158     -0.00261517584811
  H          -0.15281577204400      1.93286714584907     -0.08084017244368
  H           0.95400031502077     -2.21024170864920      0.05817191997403
  H          -1.42613584414431     -2.83825162935560      0.11518598667390
  H          -3.17743144157971     -1.10176338184188      0.07536060170997
  H           3.00311089907048     -1.30131099445785      0.87942544197545
  H           2.98021982063641     -1.36978256454153     -0.87931298060439
  H           4.03997792452342     -0.19900815574637     -0.05784853532814
