29
Coordinates from ORCA-job 84880 E -467.007244062853
  O          -3.55526455187839     -0.32850610668134      0.16707000409129
  C           1.46276840192447     -0.36858727845581      0.33399301659800
  C           0.16768677108214     -0.82997278703692     -0.41085413368994
  C           1.32450303090419      0.94083168479554     -0.50983965769288
  C           0.58322292631408      0.10058538427345     -1.58173843845288
  C          -1.09035189041266     -0.27634018658332      0.26874104871253
  C           0.33184874892958      1.90542368503546      0.13951117294565
  C          -1.07806605342344      1.27461657312865      0.26141579704648
  C           1.44967184188725     -0.27061961152014      1.85397404895901
  C           2.68126971734955     -1.19290689770077     -0.08387669884728
  C          -2.34614229856170     -0.82210162291849     -0.40392747761913
  H          -3.58273731960968     -0.59332526638195      1.09319059312471
  H           0.07389428890708     -1.90078499370695     -0.61116833158573
  H           2.25208963059779      1.44313404373117     -0.79315466715617
  H           1.25451732508451     -0.38267785357760     -2.28653860564882
  H          -0.21030323629031      0.59400914029041     -2.14289762789235
  H          -1.10182331184216     -0.64031739572209      1.30285079497392
  H           0.70909100832625      2.21739042430261      1.11570759448766
  H           0.26178481705278      2.81448868475574     -0.46337251181495
  H          -1.68100683046810      1.60256516232707     -0.58698237644514
  H          -1.59273814954880      1.65948725634727      1.14190132678874
  H           2.37387125940125      0.19279887785149      2.20963714490856
  H           0.61969983746432      0.31305354660824      2.24699366634280
  H           1.39238644666709     -1.26775476938365      2.29928280637021
  H           2.63507981701097     -2.19227435297926      0.35709653050824
  H           2.76279513715772     -1.31170970406180     -1.16370670842666
  H           3.60085993737896     -0.71776354750808      0.26766281470992
  H          -2.32893553484048     -1.91950628837589     -0.38149604030582
  H          -2.37541376656428     -0.51488880085306     -1.45167508498996
