29
Coordinates from ORCA-job 85568 E -467.036844620071
  O          -0.28358350200495      2.31825669082745      0.55292520355950
  C          -0.69230197282140     -0.08722983650883      0.26913541473803
  C          -0.07018209493437     -1.33444100479708     -0.36260794596817
  C          -2.21408148454846      0.05177918276605      0.06056958095087
  C           0.07774641741003      1.15192267438344     -0.20147365810341
  C           1.37955659954946     -1.51027199600653      0.08287703974039
  C           2.17104477372232     -0.23095321431386     -0.00153757651687
  C           1.56594683824543      0.94652598290757     -0.15766721709908
  C          -2.64297246676890     -0.07700586564486     -1.40329220575326
  C          -2.99029093041226     -0.93545913815871      0.93458330582333
  C           3.66152901915647     -0.36327107479563      0.09458920333519
  H           0.07249729772208      2.21071178697594      1.44341128969674
  H          -0.52332707720764     -0.15166002339003      1.35348675033319
  H          -0.64910050711353     -2.22451459006406     -0.10827654479054
  H          -0.09807442246834     -1.24223897716605     -1.45222003507417
  H          -2.46995687603139      1.06110193729365      0.39522101047663
  H          -0.22509527008825      1.40535069431970     -1.22242330669928
  H           1.41719426140936     -1.88350506948805      1.11477663734294
  H           1.87218248401554     -2.27814232185020     -0.52286609174368
  H           2.15694191141712      1.85401889405108     -0.24064040446464
  H          -3.70582823231451      0.15023765223121     -1.50730269238311
  H          -2.09765847721916      0.60903741024118     -2.05379913494153
  H          -2.48718791454699     -1.09099745110028     -1.77884591570454
  H          -2.73236808261614     -0.81735633037676      1.98959771406497
  H          -4.06661918966154     -0.77996287027798      0.83434248396842
  H          -2.78386894598811     -1.97140738614772      0.65356902660997
  H           3.94671625253001     -0.86731271584632      1.02378091922909
  H           4.05250874375753     -0.97533166552517     -0.72436749166160
  H           4.15687884781061      0.60728662546086      0.06524364103458
