36
Coordinates from ORCA-job 8559 E -845.161745317843
  O          -1.88901761095905     -0.36103207572015     -0.32961021636347
  O           1.91616847104331     -0.35053744063793     -0.24620248771591
  O          -2.97958790727881      0.95834286252312      1.13513676797825
  O           0.36768943486528     -0.59415428846965      1.36748166796658
  C          -0.97010258047389      1.74961588940550      0.11848571501351
  C           0.38667576604170      1.40724534074911      0.05854414551149
  C          -2.30263358435900     -2.66254323845111     -0.80765891977279
  C           3.65491084760584     -1.89677893043968     -0.79846575483381
  C          -2.77732176390944     -1.45582745907508     -0.02699449253441
  C           2.47911758733610     -1.62862614371806      0.11608930997559
  C          -1.35902114069288      3.06350926433791     -0.11779810201860
  C           1.32401248940821      2.38248218534684     -0.27500557829382
  C          -2.04981802242406      0.75406094735252      0.39577508703313
  C           0.85309129366580      0.05134426843014      0.47156388626735
  C          -3.18465342104440     -3.88167500628953     -0.54893786609929
  C           4.30848357874386     -3.24216772607986     -0.49082268650590
  C          -0.41754937902731      4.03124904444981     -0.44033549599811
  C           0.92559448568898      3.68846041928958     -0.52496471213406
  H          -2.29676241507788     -2.41912764387648     -1.87344082481179
  H          -1.26919144007313     -2.87682804816980     -0.52391329780669
  H           3.31088629029372     -1.87187897572682     -1.83556894214999
  H           4.38386636794829     -1.08963522923760     -0.68791075193504
  H          -2.75009055732407     -1.63401645836460      1.04929971670083
  H          -3.79655119919606     -1.17063293321290     -0.29660963095005
  H           2.77798819675434     -1.59774429905692      1.16592274593707
  H           1.70537009426715     -2.39250626480427      0.01523522743329
  H          -2.40940208860957      3.31299887527313     -0.05300611190546
  H           2.36965062664813      2.11293670263224     -0.31798950587865
  H          -3.18311258254801     -4.15387614209733      0.50905185983402
  H          -4.22010756353710     -3.69235616253764     -0.84185425962783
  H          -2.83243809058331     -4.74513662011721     -1.11487412609336
  H           4.67803324913926     -3.27867360546212      0.53664576953491
  H           3.60148677344594     -4.06519674789555     -0.61891926028630
  H           5.15431934709722     -3.42489257888970     -1.15461971478658
  H          -0.73333919484657      5.04935002235236     -0.62732998973861
  H           1.66487564197142      4.43791819618774     -0.77594317094548
