59
Coordinates from ORCA-job 8564 E -1549.033487961258
  O          -5.72882501035383      1.23372819789243      0.72320162252315
  O          -5.93127132413729     -0.23854078340728     -1.03997372614018
  O          -3.18305574252751      1.67751985615628      2.17601918959774
  O          -0.16372706683071      1.89863653940026     -0.20187403387415
  O           4.60012499727196      0.55342580127825     -1.36880609048721
  O           5.57410441740322     -0.50169473892239      0.90919363500442
  O           2.14232055214369      2.46049938038265     -2.10887706548897
  O           1.53269497794192      0.37699738747344     -2.55228720606902
  N           0.24948835242214     -3.62565115261852     -0.75586088821051
  C          -2.32869173081124     -0.80301185847704     -0.41661871771253
  C          -2.20461453936638      0.07644402282150      0.66786517925649
  C          -1.14205080300895     -1.56855242904021     -0.95088516814738
  C          -0.88980380463632      0.25577637438249      1.38030667978989
  C          -0.83777271607281     -2.85085858391212     -0.17333673956231
  C          -3.30769096454811      0.82988856728620      1.10751481196245
  C          -3.56430741346068     -0.96462168719060     -1.05985198528040
  C          -4.50936326613860      0.65603617229815      0.45263577330082
  C          -4.62742999709376     -0.22574400361228     -0.60220323793576
  C           0.14735611751432      0.99968375130392      0.55279288997666
  C          -6.55285825515577      0.86997290817229     -0.38908961964477
  C           1.57023772160398      0.58646726235148      0.68601587225739
  C           1.52505709466169     -2.92687400468188     -0.73661011231182
  C           0.35652253555078     -4.92605258304364     -0.12158097073944
  C           2.44530038225839      0.75456811086781     -0.39885898592009
  C           2.06660789590990      0.03428799779949      1.86080985498831
  C           3.77253582793741      0.37258138099049     -0.29929438073667
  C          -3.36142910900315      3.06298697361493      1.85942123579401
  C           4.26631429501694     -0.16659745919533      0.90537456730367
  C           3.40143080384199     -0.32539037732319      1.98380272694314
  C           1.97106313068080      1.17426368531470     -1.76970673782090
  C           4.89515068455737     -0.63665201055645     -2.11557230792731
  C           6.12773666172535     -1.05367000098378      2.09588026737604
  H           2.40392762305995      2.97255232943088     -1.33227125200020
  H          -1.32848574738057     -1.84461534356650     -1.98964599875530
  H          -0.26500343532911     -0.92426576397194     -0.97677883763785
  H          -1.05693421453430      0.84171989598747      2.28738606291695
  H          -0.48920118397217     -0.70675283008193      1.69084204291563
  H          -1.73256731794525     -3.47774358193384     -0.17559214319668
  H          -0.62935123331139     -2.61355557378136      0.88667445153979
  H          -3.67007716555711     -1.63633479296478     -1.90031069272395
  H          -7.53744159638498      0.57654696551624     -0.02892862947547
  H          -6.61355344656952      1.71457552193923     -1.08690592304920
  H           1.84803879091737     -2.66209389878414      0.28725530621391
  H           2.29083269625982     -3.56853031358191     -1.17524152509396
  H           1.47833138237741     -2.01462460754198     -1.32772992879543
  H           0.62135435235219     -4.86027774955185      0.95041619487875
  H          -0.59260333445533     -5.45852167883730     -0.20141764411715
  H           1.12403699417745     -5.51964370271383     -0.62111375509447
  H           1.41064646757711     -0.10440736758081      2.70873596823189
  H          -3.18987592693970      3.61107065529757      2.78375641134109
  H          -2.63641783600296      3.37228424128371      1.10225111570244
  H          -4.37519251890599      3.25524598319322      1.50310662099738
  H           3.75721025465397     -0.73396820329222      2.91744968851404
  H           5.39703187220028     -1.37298815569633     -1.48566917305041
  H           3.97665173016858     -1.05517477656539     -2.53201341335590
  H           5.55718217986465     -0.32928159670518     -2.92137284066257
  H           6.05123898893057     -0.35162169752865      2.93026895882379
  H           5.63564276346705     -1.99305845267761      2.36182946151944
  H           7.17507115598520     -1.24131520211277      1.87474214134868
