30
Coordinates from ORCA-job 8679 E -672.182281112823
  N           1.40404046590724      1.31146782335291     -0.08160370010955
  C          -1.88180486263384     -0.45449351674516     -0.11650637455591
  C          -2.75887256344403      0.64567130943868      0.11248580831417
  C           0.04362759437319      1.02306920000130     -0.01869836795033
  C          -0.48790116934400     -0.23757908399324     -0.18584973659162
  C          -2.18797219519476      1.93206947256241      0.26285348233067
  C          -0.83715938330897      2.11615207892261      0.20660061498123
  C          -2.44621589943154     -1.74273561507668     -0.28213836129135
  C          -4.15141386103922      0.41974692895265      0.17555577526691
  C           2.48962102333106      0.43831285712658     -0.02459694084260
  C          -3.80272219221256     -1.93053220387588     -0.21870033253813
  C          -4.66724501240025     -0.84077113608495      0.01447697701954
  C           3.66243036938517      0.77702948813630     -0.70921675491431
  C           2.47435292275248     -0.73204095208980      0.74192818302735
  C           4.78593078412397     -0.03128112819787     -0.63173353146353
  C           3.59995462827269     -1.54097455036694      0.80087448764006
  C           4.76173335651780     -1.20282739220830      0.11634119555071
  H           1.62759290125607      2.25439025021201     -0.35180058418266
  H           0.15525522952405     -1.07962914771400     -0.39583772380610
  H          -2.84172096904090      2.77874441948219      0.43479314345827
  H          -0.41626166162431      3.10566531712515      0.34329783392316
  H          -1.78517673954876     -2.58227624908590     -0.46135396103810
  H          -4.80848538380206      1.26320603378639      0.35245837244295
  H          -4.21684752144380     -2.92265869389731     -0.34739624141365
  H          -5.73607643485784     -1.00352934443545      0.06400518433838
  H           3.68379579536129      1.67948793850786     -1.30935925918442
  H           1.59353232652157     -0.99154882832014      1.31023711723069
  H           5.68186039905262      0.25200291876686     -1.16960984020169
  H           3.56937503198397     -2.44112817974145      1.40197828291309
  H           5.63512002096367     -1.83883001454083      0.16909825164679
