28
Coordinates from ORCA-job 87014 E -803.213707222773
  O          -0.28500379999126     -2.58402748896632      0.33397538580996
  O          -0.94801666496225      2.71864985240502     -0.32291834563378
  O           5.49701996143354      0.20957238260041      0.04448774947350
  C           0.73068755632699     -0.46590541797203      0.08513746244334
  C           0.55777945566225      0.91533646253715     -0.08607897025425
  C          -1.79000847030979     -0.77965985276294      0.09702171624419
  C          -1.96163885341232      0.60057002130484     -0.07392165766401
  C          -0.43414143805781     -1.38376033353478      0.18532777013997
  C          -0.79455617754260      1.51894061894833     -0.17424911605913
  C           2.01269767348182     -0.99609938395455      0.16354276171892
  C           3.13104428694251     -0.17560494724339      0.07474409099570
  C           1.67934550783781      1.73503112103807     -0.17498109612418
  C           2.95446395520683      1.19750724929083     -0.09565349025277
  C          -2.90655456898606     -1.60938747185143      0.18701287993082
  C          -3.24765401470720      1.13191851159660     -0.15251607627512
  C           4.50071936936497     -0.79276234704941      0.16579397971099
  C          -4.18122692032237     -1.07276935098312      0.10791585208824
  C          -4.35197529659897      0.30020007206994     -0.06213164324992
  H           6.36256267260717     -0.20489836842338      0.11022898081983
  H           2.11365130707709     -2.06631736744877      0.29567331473458
  H           1.53075096666305      2.79792166157083     -0.30702848963788
  H           3.82357059651518      1.83503688494532     -0.16493077175197
  H          -2.74921603727196     -2.67092687772523      0.31875208263541
  H          -3.35529862549484      2.19961909602797     -0.28451847790043
  H           4.60317095864341     -1.54453929206295     -0.62754046136608
  H           4.58862231551438     -1.31771469912568      1.12591511916456
  H          -5.04533021387809     -1.72086155912884      0.17829990571517
  H          -5.34873050174146      0.71777782389750     -0.12375745545567
