22
Coordinates from ORCA-job 8742 E -648.830716929416
  O          -1.85687457390139     -0.07833106049747      1.68122194381341
  O          -1.34695530547330      1.73642624060947     -1.41094199510526
  O          -1.95610714036907     -2.17314465454304     -0.06968359359693
  O           3.07930885894708      0.79594235249827      0.67353817476259
  O           2.93847010211801     -1.10034909540171     -0.45760129980737
  C          -1.96086997370157      0.22711538980604      0.28616564788856
  C          -1.18677585496489      1.50830616827433     -0.01483725224437
  C          -1.37177362744675     -0.95142549180726     -0.49175381789950
  C           0.28153959547033      1.36031213226839      0.39307312592287
  C           0.88127638660246      0.03890968076662     -0.02092201744536
  C           0.12432792604061     -0.99044139858117     -0.40095662140059
  C           2.36273008587205     -0.16544317793309      0.02571152459766
  H          -2.64089159149699      0.24242320436202      2.13547154422808
  H          -0.85921204167611      2.52719095524507     -1.66374636335190
  H          -1.89025619152186     -2.18888833261706      0.89480687381649
  H           2.49676249798538      1.45813340973018      1.06513040903054
  H          -3.00653742584221      0.35127354532621     -0.00271342034438
  H          -1.63147034118140      2.33244619998758      0.55708983923389
  H          -1.64712574984502     -0.83225068849384     -1.54284476459740
  H           0.84141271756836      2.19554329269744     -0.04386726494126
  H           0.33983534748469      1.47335888052504      1.48224706838901
  H           0.60152929933160     -1.92374055222204     -0.67427774094879
