23
Coordinates from ORCA-job 8766 E -861.376025174615
  S          -0.00018234048902      1.74093689476884     -0.00018247724820
  C          -1.39226594024597      0.63697171552292     -0.00190482462675
  C           1.39187563957645      0.63695411006692      0.00174257613290
  C          -1.44495015516352     -0.49200709118191      0.81630392066614
  C           1.44467654742666     -0.49201428274382     -0.81647928842590
  C          -2.48724739212695      0.96101079914126     -0.80066818839419
  C           2.48673897202010      0.96093188436263      0.80069562712473
  C          -2.57768495899169     -1.29200838894511      0.82001491268502
  C           2.57738831368087     -1.29204034281687     -0.82002721763028
  C          -3.62822126317224      0.16742906426380     -0.77442327266409
  C           3.62769785190352      0.16732320190445      0.77462721402145
  C          -3.67554050305910     -0.96380193321318      0.02970954407626
  C           3.67512542648062     -0.96388851440428     -0.02952800984311
  H          -0.59921670991970     -0.74213391144107      1.44208253373647
  H           0.59903665233722     -0.74210807111448     -1.44240128097566
  H          -2.43902223708963      1.82819168285737     -1.44631216211233
  H           2.43843012315241      1.82810246624236      1.44635311387718
  H          -2.60812902190193     -2.16999162898331      1.45286909700384
  H           2.60790989443267     -2.17000716467642     -1.45289787553851
  H          -4.47451847136706      0.42848799087080     -1.39701620292338
  H           4.47389402580147      0.42835298045212      1.39736990347890
  H          -4.55970048718425     -1.58773882052976      0.04107597461151
  H           4.55927503389908     -1.58784464040325     -0.04077261703200
