29
Coordinates from ORCA-job 88295 E -467.012235658356
  O          -2.50971221349638     -1.12681361658544     -0.48950298034659
  C           1.36585872420062     -0.10506498214595     -0.41783855404160
  C           0.41112498590640      1.07255214573534     -0.03348825285305
  C           0.92074208094069     -0.73565824248809      0.94249145172215
  C           0.66135215114366      0.70651229769148      1.45457163916534
  C          -1.04263151277337      0.76308218311976     -0.40803451281698
  C          -0.41735220460626     -1.45807980930431      0.78747763051550
  C          -1.54063538740381     -0.48819966539972      0.34830001136261
  C           1.11122945067180     -0.87611726141527     -1.70681405019783
  C           2.83435779081088      0.32181802506189     -0.39428227406827
  C          -1.96669899457061      1.95136602758197     -0.14933707708864
  H          -2.92621686529854     -1.83831733207713      0.00891429511728
  H           0.69879831872393      2.07051362318466     -0.37270841747414
  H           1.65517915393600     -1.34942032826116      1.46842647589367
  H           1.55169606437662      1.17801895086988      1.86151207040625
  H          -0.15751551135672      0.85349808689301      2.15929588953519
  H          -1.09009765612290      0.52988442734442     -1.47391274671308
  H          -0.33348032519563     -2.26247818244328      0.05424497940626
  H          -0.70049690139249     -1.92307888222335      1.73681415012133
  H          -2.04718138300805     -0.13567442076166      1.25403406832323
  H           0.08728279401475     -1.22709013908489     -1.81401422586720
  H           1.33583101569364     -0.24765996597789     -2.57298079667488
  H           1.76787754416000     -1.74913680351203     -1.75860710053604
  H           3.10132607078213      0.88174317227312      0.50134741484042
  H           3.48593822298512     -0.55452785946192     -0.44415863351187
  H           3.06020061518340      0.95188353332467     -1.25852574484164
  H          -1.91200362799251      2.27144410593065      0.89499615417338
  H          -1.69174931164281      2.80376505261105     -0.77413211112617
  H          -3.00268408866955      1.68878585952021     -0.37019075242461
