21
Coordinates from ORCA-job 8846 E -424.357264586843
  O          -0.41246431547873      0.41596854659111      0.01827497836913
  O          -1.76476335121589     -1.38586386822934     -0.06948236510377
  C           1.97899157185215      0.41184648226319      0.00766047809348
  C           3.25930079997380     -0.42068883980570     -0.04267053947595
  C           0.73777313859745     -0.45290814704466     -0.03243491085671
  C           4.52064510885229      0.43782036129597     -0.00207867571386
  C          -1.61666807245399     -0.18924720458297     -0.00774973654314
  C          -2.70587389409717      0.81565400458224      0.04976141655108
  C          -3.98056393694880      0.44514526005121      0.03659508018826
  H           1.96480051276136      1.01699551636879      0.91901297991169
  H           1.95645787188546      1.11015003677449     -0.83425654119584
  H           3.26842324573359     -1.12421987953558      0.79614071921325
  H           3.26071322342982     -1.03033619017573     -0.95204615423174
  H           0.69482328300844     -1.14195760378008      0.81358217131458
  H           0.68721439695136     -1.04937932460672     -0.94570370143638
  H           4.56084643798983      1.03357709504757      0.91301946866646
  H           5.42139160394455     -0.17735238588274     -0.03943002528143
  H           4.55277167619338      1.12869242466434     -0.84801962586041
  H          -2.40698044855307      1.85467947878236      0.10245460499368
  H          -4.78146684407888      1.17138130977702      0.07826703403798
  H          -4.24516500834694     -0.60368707255479     -0.01672865564035
