14
Coordinates from ORCA-job 8857 E -307.676006923286
  O          -0.25858658273842     -0.45904608293317      0.03655817795388
  O           1.19514184047895      1.23020819231219     -0.27520690682074
  C          -1.35739348741219      0.47109101305671     -0.08680365627801
  C          -2.63940473951474     -0.31215975460117      0.07369289540543
  C           0.97967349952813      0.06115585904000     -0.07967936578020
  C           2.02956667758417     -1.00718996918678      0.06677715189152
  H          -1.24947756306204      1.24234038973387      0.67743533895173
  H          -1.29402040856493      0.95919104373867     -1.06059955941989
  H          -2.68167746096581     -0.79585919152623      1.05060436828174
  H          -3.49498233094837      0.36009043164017     -0.01405717339579
  H          -2.72636834689047     -1.08061622657146     -0.69574137129180
  H           1.93106336703900     -1.49495254220459      1.03765863152486
  H           1.89039094167125     -1.77235711818490     -0.69837254717396
  H           3.01596659379548     -0.56182304431331     -0.02770598384878
