6
Coordinates from ORCA-job 887 E -115.712688230566
  O           0.71923130821618      0.00000095646388      0.00420938260777
  C          -0.70166868936528      0.00000022546470     -0.02185216408949
  H           1.04479864972511     -0.00000117391601     -0.90139377876508
  H          -1.03547987684311     -0.00000022999209      1.01506167863132
  H          -1.10634358594102      0.89137379074234     -0.51470365567509
  H          -1.10634280579188     -0.89137356876281     -0.51470446270943
