30
Coordinates from ORCA-job 8872 E -542.272890415793
  O           1.29610542281497     -0.16591829835008     -0.00828536350034
  O           2.55241855280269      1.69745457560263     -0.07937033672138
  C          -2.40867805391226      0.50225636466853     -0.01557702709537
  C          -3.63589651899364     -0.40511280867419      0.02186105109200
  C          -1.09212507030160     -0.27195242776078      0.00614409080275
  C          -4.95727948140674      0.35986542223534      0.00056681631726
  C           0.10744482002291      0.64980320778977     -0.03132898076438
  C          -6.17831615485330     -0.55533883617524      0.03695694347727
  C           2.47149394918793      0.49341874023544     -0.03692216124672
  C           3.62975659863235     -0.45408279678992     -0.00940988445601
  C           3.36038473944046     -1.92985593192437      0.04039275256540
  C           4.85178216359463      0.07413697783635     -0.03092023326728
  H          -2.44973176523470      1.12823912529260     -0.91383479224860
  H          -2.44224942945558      1.19026189158062      0.83644020428614
  H          -3.60303832527391     -1.09378201407952     -0.83005578593298
  H          -3.59527297657771     -1.03194544688137      0.91992514921154
  H          -1.03954279955621     -0.89162131204900      0.90613609759462
  H          -1.04687878984235     -0.95345507294944     -0.84838836409743
  H          -4.98858227719171      1.04709945262546      0.85262613426392
  H          -4.99537213722733      0.98669808836094     -0.89658420329840
  H           0.12827088498655      1.32533956334283      0.82620633013849
  H           0.12038876485926      1.26402630053984     -0.93394769515478
  H          -6.18139215069193     -1.17055197591616      0.94030564488876
  H          -7.10780854832024      0.01696687020363      0.02109887551852
  H          -6.18844003672481     -1.23113289635447     -0.82194637289157
  H           2.78124514582421     -2.19470250758942      0.92710891750480
  H           2.77424558428991     -2.25211405294958     -0.82242866835703
  H           4.29636297854279     -2.48777788848254      0.05472777784263
  H           5.73451706787614     -0.55222093149831     -0.01300007643268
  H           4.98598184268923      1.14664061811042     -0.06696684003919
