23
Coordinates from ORCA-job 8900 E -276.322653288773
  C          -0.00079721580814     -0.47911666577299     -0.05365783156487
  C          -1.27778463938616      0.35293233317551      0.03207926526767
  C           1.27609235145343      0.35338815727005      0.02900206829087
  C          -2.55568100354363     -0.47913479680396     -0.05060052275486
  C           2.55412302206865     -0.47812646750132     -0.05685637793730
  C          -3.82600536810338      0.36281659379627      0.03612181205580
  C           3.82430810195195      0.36432429685120      0.02654653708585
  H           0.00031605523583     -1.22338727122109      0.75100607125361
  H          -0.00182044648067     -1.04718122203460     -0.99105904747266
  H          -1.27755002801428      0.92120007899227      0.96951735676879
  H          -1.27960598830184      1.09754659132389     -0.77244106249472
  H           1.27564920475464      1.09799536499435     -0.77554481543589
  H           1.27789404038518      0.92169849109078      0.96641135093791
  H          -2.55519346972820     -1.04626153522086     -0.98754893824311
  H          -2.55308763528669     -1.22252646779362      0.75367180539519
  H           2.55387725044964     -1.22138703784485      0.74755827809525
  H           2.55141318252096     -1.04544794118196     -0.99368143179683
  H          -3.86716557301877      0.91568215423481      0.97810801891596
  H          -3.86938045530502      1.09299128802319     -0.77607427432041
  H          -4.72286309760725     -0.25688456960278     -0.02540821551279
  H           3.86764485414611      0.91727044779888      0.96839237834650
  H           4.72126845308453     -0.25499486065116     -0.03720953849592
  H           3.86528740453310      1.09448603807798     -0.78578788638402
