48
Coordinates from ORCA-job 8906 E -778.095411003757
  O           4.42040879855843     -0.28810037839021     -0.21787845553021
  O           6.35827020570531     -0.54929766914544      0.89182087692211
  C          -2.28583397923645     -0.84981076016371     -0.32522461011057
  C          -3.39454928370465     -0.02807190523239      0.32738948432255
  C          -0.90004885616223     -0.56714133086712      0.24917663590939
  C          -4.78052242468764     -0.31016771425460     -0.24700651222765
  C           0.20862078622040     -1.38870037954916     -0.40357654984212
  C          -5.88933994805611      0.51141811024707      0.40575177634688
  C           1.59331720189712     -1.10092182115159      0.17017963394902
  C          -7.27514634140182      0.23047200025710     -0.16941682416503
  C           2.69759078476107     -1.92522632201971     -0.48796156900184
  C          -8.38543941443776      1.05058764597226      0.48391976402805
  C           4.07740344315028     -1.65923446988242      0.07464093898396
  C          -9.76623216082057      0.76246599477114     -0.09963722524246
  C           5.60305480592370      0.14772883801922      0.25791463570574
  C           5.83959486421231      1.58132156284558     -0.10164582805625
  C           4.79120713931953      2.31527979714659     -0.88605860738831
  C           6.98237874002877      2.13257780640440      0.30183531402692
  H          -2.51289902139619     -1.91626740731508     -0.21387441674136
  H          -2.27715329435410     -0.65352202006575     -1.40350559378459
  H          -3.40316629733975     -0.22445217163049      1.40563725689595
  H          -3.16729335071606      1.03836670737412      0.21618575113661
  H          -0.67255542728185      0.49910405166571      0.13750340377654
  H          -0.90837616315084     -0.76333811975532      1.32740472639521
  H          -4.77188639082748     -0.11366449550639     -1.32524732224255
  H          -5.00768504829961     -1.37663668334142     -0.13591899374821
  H          -0.01754935019279     -2.45537950499151     -0.29150455322193
  H           0.21670941863953     -1.19253967793965     -1.48183969989851
  H          -5.89858400844878      0.31409946910184      1.48385118029367
  H          -5.66169709873113      1.57790177537058      0.29548068151371
  H           1.82123176228406     -0.03763926119114      0.05596469027037
  H           1.58955186525773     -1.30055601098993      1.24789082378069
  H          -7.26692980340193      0.42896326701950     -1.24748599182688
  H          -7.50314521039261     -0.83623786017778     -0.06041189498860
  H           2.48931638157047     -2.99236126466701     -0.35833805052274
  H           2.70984334719243     -1.73921573474202     -1.56638845533719
  H          -8.39365124606835      0.85071889123556      1.56068961876533
  H          -8.15667563284074      2.11609860131177      0.37509416000140
  H           4.83236118999068     -2.30870052367434     -0.37118556227790
  H           4.11085120088338     -1.80333996628454      1.15645084478672
  H         -10.53960047644236      1.36141760385664      0.38542273552055
  H          -9.79473832029183      0.98491583646065     -1.16939882229020
  H         -10.03326328238488     -0.29012064583932      0.02463834400340
  H           3.83968078852164      2.33218566114561     -0.35081268390884
  H           5.10403441840187      3.34226442555102     -1.07303422315293
  H           4.60190308652471      1.82690904522440     -1.84384767119907
  H           7.21798118012814      3.16501989627546      0.07727341190691
  H           7.70173242189695      1.55466411151182      0.86588642746421
