30
Coordinates from ORCA-job 8914 E -430.146775267718
  O           5.67912901661490      0.19791665977903     -0.00381562716163
  C          -0.62520147574179     -0.41183886898890      0.01909824249335
  C           0.67196530790563      0.39268851037096      0.00413079566607
  C          -1.88009012624673      0.45662239226089     -0.02048113400845
  C           1.92660487328768     -0.47656660681030      0.04412152332086
  C          -3.17773966148222     -0.34711671674091     -0.00596018203351
  C           3.22271330367155      0.33093102449029      0.02351898723288
  C          -4.43378158257500      0.52063094735218     -0.04474766080952
  C           4.46607959825291     -0.54514868761980      0.07386809413520
  C          -5.72515100201636     -0.29310387622410     -0.03016081758888
  H           5.70789523860697      0.81153358027685      0.73841042198365
  H          -0.63410868905977     -1.09918682257462     -0.83449696734956
  H          -0.64978178303750     -1.04215970641682      0.91541616575227
  H           0.69743020261201      1.02223333053471     -0.89233893630505
  H           0.68129586045473      1.08024396050973      0.85752080235905
  H          -1.87106915282420      1.14409919110149      0.83312483070208
  H          -1.85523071718821      1.08690209191594     -0.91679948995225
  H           1.90117909738707     -1.10516137639948      0.94148048498304
  H           1.91569830145485     -1.16443049229118     -0.80880074758233
  H          -3.18769460879573     -1.03436522777769     -0.85991343812443
  H          -3.20300953139526     -0.97816850118683      0.89006173373201
  H           3.26634770941223      0.94929988485278     -0.87801041776024
  H           3.23517614106586      1.01990533400593      0.87743322162533
  H          -4.42310494202655      1.20656450238727      0.80898707207861
  H          -4.40771844065488      1.15064476509386     -0.94021121662330
  H           4.48534036032134     -1.22080347671388     -0.78362670157981
  H           4.45039570992690     -1.16732547665310      0.97902034637701
  H          -5.79158565807682     -0.90830267948673      0.87083392037391
  H          -6.60573210414653      0.35177262851581     -0.05834304635246
  H          -5.77619724570705     -0.96421728756334     -0.89135425958389
