35
Coordinates from ORCA-job 8918 E -582.801379046119
  O           3.92859191603508     -0.48948560445148     -0.00915684157599
  O           5.29462067979559      1.29877113464796     -0.01896880108916
  C          -2.28846627115401      0.37111577954194      0.00294960797188
  C          -1.01094710566365     -0.46428987854859      0.00332907363196
  C          -3.56341163555438     -0.46853187455656      0.00979697658522
  C           0.26318121112772      0.37688414928965     -0.00347045289372
  C          -4.84166447669729      0.36585001959314      0.00945015282331
  C           1.53654693016433     -0.46671092230027     -0.00308181841192
  C          -6.11788733019757     -0.47281854370414      0.01631291995760
  C           2.78378174183640      0.39022771697101     -0.00989896277754
  C          -7.38969404068532      0.37127324188611      0.01594829207248
  C           5.13831683657472      0.10412914530308     -0.01404350476948
  C           6.24152038419715     -0.91982902691396     -0.01239595941579
  H          -2.28733085628034      1.03420015884088      0.87554314344517
  H          -2.29175441736681      1.02664190113129     -0.87533012001575
  H          -1.00657276091626     -1.11946065484511      0.88165349751895
  H          -1.01096068603339     -1.12696686557260     -0.86935646059320
  H          -3.56420571523488     -1.13169886088725     -0.86283028398028
  H          -3.55976033792329     -1.12416543936832      0.88808961202859
  H           0.25868637869451      1.03166081434010     -0.88193845342409
  H           0.26310098772071      1.03914620185730      0.86937967902683
  H          -4.84138531133657      1.02932710574223      0.88205228944866
  H          -4.84584469755652      1.02178419832302     -0.86882402346483
  H           1.55298744489635     -1.11568627040050      0.87741015384722
  H           1.54854065332455     -1.12319946992823     -0.87805900719703
  H          -6.11727793084495     -1.13510303129640     -0.85595488614023
  H          -6.11279802503921     -1.12761497090315      0.89419930329383
  H           2.83647739758541      1.03699080677642      0.86817680426978
  H           2.83192223862643      1.02953954235626     -0.89368092648965
  H          -7.43094118555782      1.01973214029776      0.89483403535502
  H          -7.43549073041295      1.01210634931789     -0.86828992393528
  H          -8.28526335806656     -0.25321442576354      0.02094814822528
  H           6.15690749777674     -1.55593702325051      0.86992330694661
  H           6.15234743718025     -1.56383188343853     -0.88850716489273
  H           7.20417513698586     -0.41629566008687     -0.01709840538171
