38
Coordinates from ORCA-job 8919 E -3046.290339609689
  Br          7.97849134810791     -0.53345151173856     -0.00918826239835
  C          -0.01690235753251     -0.36238796580581     -0.00506805221248
  C          -1.30025558142702      0.46431055446149     -0.00350941393817
  C           1.25260534325662      0.48552129439339     -0.00661203751813
  C          -2.57013968139274     -0.38292616543617     -0.00264456508688
  C           2.53505411208842     -0.34240572302107     -0.00709343445323
  C          -3.85359439723200      0.44367825119303      0.00005474014206
  C           3.80370464315573      0.50802900570505     -0.00908446598408
  C          -5.12369673746432     -0.40307673849179      0.00033006016424
  C           5.08203914685197     -0.33396319393835     -0.00849936876310
  C          -6.40823231128926      0.42281158030760      0.00380933762044
  C           6.31844939031217      0.53895578151898     -0.01054224516958
  C          -7.67167110847667     -0.43373642837108      0.00262603808986
  H          -0.01022955229308     -1.02166678969890      0.87038324658300
  H          -0.01232339373447     -1.02174410455829     -0.88047228859317
  H          -1.30466895937761      1.12334535049665      0.87223962370652
  H          -1.30635031402777      1.12417340061564     -0.87861709193193
  H           1.24662183329677      1.14409870788274     -0.88260410515895
  H           1.24803525921340      1.14526266915380      0.86849710187194
  H          -2.56594232627793     -1.04143151000304     -0.87877311911425
  H          -2.56349365022914     -1.04340481584124      0.87196778571117
  H           2.54285746051883     -1.00011768719684      0.86906622906629
  H           2.54117646995481     -1.00185199713137     -0.88194443595813
  H          -3.85767821535625      1.10189461606557      0.87647343383967
  H          -3.85980867871173      1.10451748697831     -0.87435713823886
  H           3.79818205168912      1.16412874892320     -0.88643630756745
  H           3.79913878942987      1.16682504115249      0.86623476128549
  H          -5.12043005095607     -1.06115758095917     -0.87638525293415
  H          -5.11782805649629     -1.06457247567682      0.87444409215180
  H           5.09693181908661     -0.98444006282134      0.86952356081460
  H           5.09597891916549     -0.98725839049898     -0.88443594760729
  H          -6.41110240835458      1.07895087395815      0.88072469426703
  H          -6.41270815125174      1.08385339232397     -0.86940125204508
  H           6.38480430556489      1.16487959642111      0.87560930014520
  H           6.38417147879944      1.16163454942677     -0.89903050035711
  H          -7.70782237721806     -1.08149019333781      0.88227807377901
  H          -8.57344081698914      0.18182037056404      0.00550794008676
  H          -7.70975024440369     -1.07615693701537     -0.88084373429471
