24
Coordinates from ORCA-job 892 E -687.152428335336
  O          -2.35604778975544     -1.23552781512766      0.26127922649248
  O           0.09718916299947     -2.53607713284540     -0.39561276156449
  O          -2.30560415928444      1.63140151798831      0.19804767089576
  O           2.54267384198532     -1.18688327754685      0.26695482374859
  O           0.10793497350175      1.91412288332901     -1.14175604579849
  O           2.47303078646909      1.59368742485809      0.38523634996996
  C          -1.16694730507801     -0.49645305786507     -0.05021893424261
  C           0.08455973173460     -1.30111238538945      0.29273098055794
  C          -1.18062469840379      0.87256652718221      0.61913151432415
  C           1.33403114602639     -0.50409139222560     -0.05662134399450
  C           0.07680644079748      1.66407119364048      0.25246078505749
  C           1.30347336036208      0.85488272069548      0.65154803695595
  H          -2.39198453215973     -1.37246042007125      1.21749726010050
  H          -0.80507132572706     -2.88130028262719     -0.38226441690165
  H          -3.05250388323110      1.02569793880927      0.10786316898306
  H           2.42359663423487     -1.67375921443957      1.09095106772084
  H          -0.73925057700557      2.31854774787438     -1.36886155657482
  H           3.20284437760085      0.95940617602650      0.37509991710758
  H          -1.20194033101411     -0.35965952446692     -1.13130557118454
  H           0.08800454351958     -1.48552256821466      1.38425104533777
  H          -1.20966042610434      0.74042954492829      1.71180772390250
  H           1.36947762506797     -0.34249280820125     -1.13421556521936
  H           0.07947339845247      2.60799777632637      0.80999366201967
  H           1.22260500501166      0.66724342736247      1.73622196230621
