52
Coordinates from ORCA-job 8969 E -1150.937726611880
  O           4.90640484473759      0.01187962148419     -1.06537728719947
  O           4.04947838501406     -2.66310055329519      0.71812260005632
  O           2.60939173063955     -2.33252436971673     -0.97196823108468
  N          -0.28312864688612      2.06154312747784      0.00573759333449
  N          -2.17155222127690     -1.10318921283076     -0.45910169797868
  C           2.07652059695476      0.36283115342005     -0.14851997872326
  C           2.14114668869755      1.81596983016838      0.34384522491013
  C           0.67617760604237     -0.19287602398380      0.10867340376435
  C          -0.38484823799575      0.70265067276218     -0.53216044085821
  C           3.18171170661044     -0.47907409626845      0.49886736571569
  C           1.01935166029906      2.63672873971610     -0.28414800185538
  C           3.51434829128028      2.42991134333214      0.08962109299504
  C           4.57829217386073      0.14515767630852      0.32145982119565
  C           4.60347309694573      1.60395385707251      0.76814308678755
  C          -1.77524045180086      0.21023499226258     -0.31639814418917
  C          -1.39162648097117      2.91961142317697     -0.40159151172475
  C          -2.84438491879177      0.98164233291200      0.02857574678435
  C          -2.70818782868969      2.45440807125325      0.22337258369662
  C           3.21844075759193     -1.90447554971259     -0.02610680102581
  C          -3.97921783599116      0.11216461894388      0.11958264214845
  C          -3.52059204991465     -1.19341002989196     -0.19616741751719
  C          -5.33028176757980      0.29764193819685      0.42897644356565
  C          -4.37091166341721     -2.29360512421563     -0.20750327741542
  C          -6.17940245836910     -0.79603345368053      0.41820611855356
  C          -5.70456290276913     -2.07856192064313      0.10360124820201
  C           4.21640283807241     -4.01878922393434      0.27847643958185
  H           5.79777447513360      0.34862750841450     -1.20414616837244
  H          -1.57216093433778     -1.86939588843678     -0.70606182432658
  H           2.25039584889954      0.35903390133308     -1.22901654385710
  H           1.96097765687799      1.80964854411971      1.42683880408112
  H           0.60320782128668     -1.19868891072734     -0.30263059999525
  H           0.48012915571390     -0.24785668860911      1.18390538363085
  H          -0.18472298336250      0.71777919981560     -1.62439654460894
  H           3.00321867317350     -0.54178611502346      1.57766050127930
  H           1.19540061253492      2.71841708844209     -1.37437834423758
  H           1.04134001963267      3.65181286066461      0.11911643987280
  H           3.70313242394611      2.47037091675898     -0.98670669279074
  H           3.54133000829074      3.45870387769809      0.45882741570076
  H           5.28766432625901     -0.43455564646418      0.92014363671239
  H           5.59520809847535      2.02040973147051      0.56402931481831
  H           4.47183146022218      1.63580163734828      1.85489456781735
  H          -1.16185433250504      3.93694014810345     -0.08041266092858
  H          -1.49589081533218      2.94018834477110     -1.50144489592175
  H          -2.71983902511106      2.71085944100188      1.28821046771908
  H          -3.53997256729549      2.99139415766308     -0.24225486225294
  H          -5.70681578536312      1.28316108985161      0.67405444818717
  H          -4.00721948724079     -3.28428925047649     -0.45143569449084
  H          -7.22725686219509     -0.66418351086915      0.65589207562282
  H          -6.39181981635968     -2.91480332001929      0.10291811082903
  H           4.92112531296181     -4.46781044742016      0.97309347974351
  H           3.26438420681527     -4.54832305544045      0.30313887501809
  H           4.60940159658630     -4.04165345428448     -0.73739731096951
