29
Coordinates from ORCA-job 89755 E -467.034306528588
  O           2.26215529753137     -1.93277556818931      0.39785928264899
  C           1.95995634499562      0.50137903725751      0.23459099784326
  C          -0.94090350733648     -0.02469853400901     -0.31223306744283
  C           1.43848053327480     -0.89223273352743     -0.13181591116329
  C          -0.01559583763060     -1.08345207999524      0.28964454182419
  C           1.02531188569245      1.57505156282218     -0.33337296805547
  C          -0.43135537121561      1.37580767087991      0.07827103823489
  C           3.39956125085541      0.71104430616114     -0.22556847613258
  C          -2.40732452759109     -0.20085168859238      0.02118615602077
  C          -3.36346749741271      0.59362851014391     -0.82704914807615
  C          -2.85105398256600     -0.99769535714059      0.99047859918889
  H           2.17709326734935     -1.92259271797025      1.35867719342603
  H           1.92879731015202      0.57445628853825      1.33164017813377
  H          -0.85754070446110     -0.09901314879917     -1.40584524871796
  H           1.51673326888234     -1.01584171237040     -1.21740433642338
  H          -0.06347030440165     -1.02963223630828      1.38424482538887
  H          -0.33910054765147     -2.08577593378907      0.00310967296651
  H           1.37275654298566      2.56252663181178     -0.01793360026483
  H           1.09696407189042      1.55974470969867     -1.42758196961962
  H          -1.05103773440078      2.14910249594936     -0.37882066523039
  H          -0.53275965977527      1.49023914582997      1.16278692453688
  H           3.77267616475837      1.68650856594836      0.09401879694729
  H           4.05748403133310     -0.05958427665431      0.17448250987671
  H           3.46312994702286      0.67071516422536     -1.31667400269646
  H          -4.39897509571301      0.39079719211717     -0.55515321856171
  H          -3.19313095058977      1.66862641384454     -0.72710816663629
  H          -3.23237388423573      0.35172333263066     -1.88628668535908
  H          -3.91039548710315     -1.08573217516968      1.19862072519624
  H          -2.18889882463938     -1.59015486534363      1.60646602214675
