20
Coordinates from ORCA-job 9025 E -461.236930664946
  O          -2.32694217951641      0.95579644842439     -0.10224401418929
  O           2.32694611829453      0.95582571603276     -0.10223290319012
  C          -1.20486799865710      0.18761674706906     -0.03453044127431
  C           1.20488172552746      0.18763318040664     -0.03453414355789
  C           0.00000233384229      0.87808991542254     -0.09540998956243
  C          -1.21388622015362     -1.20429682211766      0.08817252527146
  C           1.21392079769664     -1.20427930866682      0.08816368315973
  C           0.00002303321753     -1.87561709891957      0.14736035425256
  C          -3.58693885952938      0.31086359516298     -0.04497909355225
  C           3.58694385299504      0.31089556400916     -0.04497041832080
  H          -0.00000693634466      1.95488100098637     -0.19029998924013
  H          -2.13797052820593     -1.75903384768406      0.13710595350540
  H           2.13801318876041     -1.75900182521330      0.13709623729486
  H           0.00003040214065     -2.95422402407413      0.24240941444501
  H          -3.71781152905209     -0.22806250734185      0.89819698230479
  H          -4.33130077411905      1.10078258775682     -0.11442921884686
  H          -3.71834179609483     -0.38499159690831     -0.87904765708828
  H           3.71779288748898     -0.22807969976913      0.89817998425361
  H           3.71836909639337     -0.38491589381979     -0.87907118098709
  H           4.33130738531615      1.10081886924391     -0.11436208467797
