29
Coordinates from ORCA-job 90350 E -467.008723193670
  O          -2.90015594000121     -0.16081957935185      0.27158395589032
  C           1.37153316170709      0.01331096747571      0.25524382881277
  C           0.46445449532150      0.21879741006726     -1.00811016810068
  C           0.57729228287462     -1.31917902640059      0.43859963930712
  C           0.34198438201118     -1.32368090737726     -1.08990028693454
  C          -0.93095628283949      0.77629418325198     -0.70447912217904
  C          -0.76809820169769     -1.08560267252128      1.12510281930166
  C          -1.53358269016232      0.15197926824049      0.57847867597289
  C           2.82545036936932     -0.24425260838698     -0.14994925726080
  C           1.38365399873513      1.02665478526894      1.39418809271206
  C          -0.99647331923166      2.30288497703879     -0.68083988378475
  H          -3.34352084358325     -0.42342943900233      1.08583125043867
  H           0.91547422037551      0.74631443230063     -1.85187033351813
  H           1.11164432194705     -2.15994934945508      0.88690197275418
  H          -0.61524504270561     -1.71578800104032     -1.43592177690737
  H           1.14291039707639     -1.79811799371660     -1.65108931042246
  H          -1.57902484438235      0.43808016318827     -1.51827513627219
  H          -1.39626056325391     -1.96576888555332      0.96530089545181
  H          -0.63162295658435     -0.98125901983743      2.20514927308385
  H          -1.53594514170776      0.92160748531521      1.35643823144019
  H           3.39707590745513     -0.61991296814374      0.70284582026711
  H           2.92134148011291     -0.96827755015084     -0.95772943579477
  H           3.29627239883847      0.68526467519999     -0.48051121764211
  H           1.97034156455858      0.63552836106113      2.23032124091769
  H           1.85627893919662      1.95867566874586      1.07459893079218
  H           0.39684201255214      1.27310884318677      1.77661784530328
  H          -0.35420181101121      2.72726745504079      0.09200460795885
  H          -0.67940472227700      2.71663662251998     -1.64070268692505
  H          -2.01884757269384      2.63726270303579     -0.49347446466276
