42
Coordinates from ORCA-job 91457 E -662.357123330503
  O          -3.17182231259364      0.35411117225990      1.33344075329828
  C           1.23620165130882     -1.03167994823487      0.15659213664805
  C           0.90053131706626      0.38897142349091     -0.38730776012414
  C          -1.58758671662839     -0.13664861105897     -0.48708973258093
  C          -0.50642958095730      0.83931619335788     -0.00070980030448
  C           0.14982901162951     -1.99254373096981     -0.34869206542368
  C          -1.27521687378847     -1.55933319039346     -0.00635781743413
  C           2.59888955003899     -1.46220878781921     -0.41546483996696
  C           2.00635917535324      1.36092352748721     -0.05253767131278
  C          -3.02175016001377      0.32302051212006     -0.09837828515451
  C           3.72401566673032     -0.47075521857183     -0.12189704286899
  C           1.28590641285152     -1.05175490000485      1.69091357672357
  C           3.35108196880048      0.94351347019026     -0.58799802691636
  C          -4.07635357703984     -0.67040146435350     -0.57836494211870
  C          -3.33857585593078      1.70758778019723     -0.67085498573572
  C           1.84768839503012      2.46814477878898      0.66734080400979
  H          -2.64384911927483      1.08157400309818      1.67971131954615
  H           0.91036898642386      0.28616781333689     -1.48266631542451
  H          -1.55388900612780     -0.13793798226648     -1.58451909454654
  H          -0.56745454945824      0.94583676960506      1.08641045465009
  H          -0.67547546687451      1.82993974361775     -0.42355519765169
  H           0.24379582693730     -2.07254939947414     -1.43782911618149
  H           0.33751458554448     -2.99387937447716      0.05136496793759
  H          -1.44595203199305     -1.61217629601457      1.07078095062058
  H          -1.96777062044206     -2.26862251173483     -0.46089689731089
  H           2.85661855115162     -2.45240997088291     -0.02781096588415
  H           2.49713172436582     -1.57023141045873     -1.50136475144451
  H           3.93891805324589     -0.45157767288540      0.94939489816726
  H           4.64313508037773     -0.79349272370644     -0.61731796044343
  H           0.31544438678831     -0.83520214298122      2.13489687068504
  H           1.59242390985877     -2.04080101191493      2.03936667375936
  H           1.99093304774377     -0.32024886280771      2.08349359014045
  H           3.30855064207703      0.94711552343918     -1.68455439399796
  H           4.11826549744097      1.66212686536290     -0.29427744324585
  H          -3.98586612548093     -1.61956490307760     -0.05398199324840
  H          -5.07275943919817     -0.27345993002853     -0.38230774705081
  H          -3.97822308911596     -0.85045430113292     -1.65046859678652
  H          -2.68775704545030      2.47751857186805     -0.25386880840130
  H          -3.21798336459096      1.72066445654789     -1.75623621026870
  H          -4.36870003988896      1.97541726012310     -0.43398174472309
  H           2.68731532185728      3.11865642261381      0.88136278955437
  H           0.88888621222587      2.77053605774485      1.06612142081065
