46
Coordinates from ORCA-job 91458 E -1261.680333351007
  O          -0.03369711219093     -0.84558945011834     -0.52959275634346
  O           1.38931998615771      0.64945271355096      0.41050364391233
  O          -1.18218251932561     -1.84357587273432      1.16865852291142
  O          -5.40436468384047      1.25456232879552      0.52494394911223
  O           2.13135442948031     -2.46180970078317     -1.39046781710296
  O           4.64691720541886     -1.09116965492981     -1.36513554472120
  O           5.04890716640644      0.78644724804413      0.75823329186324
  O          -1.10864147592331      0.16194117993187     -3.11335781066391
  O           1.62234822147339      2.65786655227241      2.50476383322131
  C          -2.37717537395521     -0.50109581572248     -0.50568785750431
  C          -3.63682945146782     -0.49744743066983      0.38691837619614
  C          -1.12370762464925     -0.68215544262933      0.33718551915416
  C          -4.00038656057043      1.00129968477727      0.57320789680340
  C          -2.40658884444842      0.86137109568327     -1.16345009323455
  C           1.22439307341553     -0.71058961675124      0.05102336159833
  C           2.28274339149208     -1.12349982903386     -0.97391588478339
  C           3.66297109803105     -0.83749866665964     -0.38715820205309
  C          -3.30321660485644      1.65417080757130     -0.58238846820890
  C           3.77359904805195      0.59057338423927      0.14743784441749
  C           2.60770065520575      0.91957681202974      1.08323176339590
  C          -3.46387418580012     -1.31642240098404      1.62373318440122
  C          -1.43655586927582      1.23834707893854     -2.24645979895807
  C          -2.32498442051801     -1.94353350248757      1.90839807704372
  C           2.59158081886333      2.37878271724814      1.50723195969079
  H          -5.78033670714133      1.08014344771335      1.39398137649643
  H           2.37471682238042     -3.05452338685138     -0.66946073675528
  H           5.47310984556582     -0.70401564836516     -1.04739428816479
  H           5.11770150297424      0.20497262447539      1.52647245796910
  H          -0.57986604348759     -0.46501260733264     -2.60246486929075
  H           1.93145054701193      2.31167927135073      3.34858546922984
  H          -2.39581115863251     -1.31405341813768     -1.23446646162375
  H          -4.46189427618775     -0.90855415776801     -0.20237375791040
  H          -0.96636561448784      0.18274909632458      0.99018600715149
  H          -3.60279774462097      1.38088888261033      1.52422319412544
  H           1.29372250216304     -1.33704578695805      0.95399919108703
  H           2.14031181580928     -0.51385957968678     -1.86886603286616
  H           3.80454041202213     -1.52022367335924      0.47413565451115
  H          -3.50476676477342      2.68223806259891     -0.85495635444963
  H           3.75398292602281      1.28078813483726     -0.69907939683565
  H           2.68213071346971      0.28370498923150      1.98399503516184
  H          -4.30903479278218     -1.47165285161278      2.28226447718920
  H          -0.52777714395769      1.64312705376068     -1.78287627548467
  H          -1.86408926108176      2.02432116028605     -2.87024954302177
  H          -2.19719749481731     -2.60813324998123      2.75230964846819
  H           2.32048488548291      2.98587687519651      0.64223090795215
  H           3.59797266189349      2.66595454208886      1.82585130691317
