26
Coordinates from ORCA-job 91588 E -594.015950592609
  O           3.11814032005860     -1.38990327615825      0.24732244707849
  O           3.38854891440714      1.24302650026242     -0.23913541423842
  N          -2.92703944251243     -0.05293511303299     -0.05788627000928
  C          -1.83678230021537     -0.97001610443283      0.27479100727779
  C          -0.44383644929017     -0.36444481280340      0.11541390264670
  C          -1.45297774209762      1.92983366575688     -0.22194039654531
  C          -0.26674521338471      1.00151964373901     -0.11662290059537
  C          -2.69400530279383      1.30659706544547      0.41091562855023
  C          -2.02472052923740     -2.24796482044435     -0.54003312198907
  C           0.68909359514332     -1.17285492342345      0.25163168309513
  C           1.02439370955197      1.51985938566892     -0.23567619487566
  C           1.96158498776069     -0.65072973532826      0.13271173989283
  C           2.13911929729426      0.71205382715666     -0.11944813749218
  H           2.90353621714538     -2.31023985289521      0.43073126641752
  H           4.03074716762139      0.53143720922620     -0.11651013283457
  H          -3.05858236234139     -0.04370297022192     -1.06474419383287
  H          -1.96091352087318     -1.22829479884455      1.33534907679468
  H          -1.21597564877568      2.88747403378879      0.25051295464700
  H          -1.66223742791771      2.15018904256904     -1.27585892574645
  H          -3.58040423754044      1.90951107163137      0.20328428237230
  H          -2.57818484695819      1.27003711461847      1.49860264408683
  H          -1.33176656115070     -3.03131515382805     -0.23641351831081
  H          -3.04098228270020     -2.62065498593565     -0.40570380341649
  H          -1.86039646118671     -2.05076959531124     -1.60271812562319
  H           0.57926289341459     -2.23232963831272      0.45657886267538
  H           1.17381222657837      2.57795422110965     -0.41360036002522
