81
Coordinates from ORCA-job 92097 E -1248.282958800504
  O          -6.73463538543396      1.15987081697381     -1.17739709937843
  C          -1.19583910690302      0.44567115228657      0.19118485452218
  C          -2.72721525694911      0.62321459599191      0.46707994737465
  C          -0.57382902960936     -0.92762480747943      0.57384818785767
  C           1.71618516208287      0.28790372187180     -0.03234676034177
  C          -3.45123364693419     -0.53597609713426     -0.27721562865448
  C           3.12321104950340     -0.15208542069966      0.50664557604143
  C           0.84390683692333     -0.97563881773398     -0.01741074521735
  C          -0.35662558835954      1.63857074639537      0.68535862546697
  C          -1.44619551445410     -2.04145202322891     -0.04219934963099
  C           3.79688024650361     -1.33038910531910     -0.26376027145943
  C           1.12557638024793      1.33201042119294      0.92643352347852
  C          -5.00100393749495     -0.43752375778952     -0.40758919043077
  C          -2.94109828604196     -1.88748592293357      0.22157381423861
  C          -3.16791327770549      1.95181147058411     -0.18385088792193
  C           4.14520670702810      0.95407887897772      0.89245445920969
  C           2.75723691360395     -2.16111453715861     -1.05871925391761
  C          -5.33029759497732      0.94767373034692     -1.01964589889875
  C          -3.04953860670058      0.68320821267975      1.97473894897777
  C          -0.47670617929270     -1.18516837928617      2.09640752841478
  C           1.37068550096050     -2.09995241829992     -0.49986684074009
  C          -4.68305906966503      2.10569096536413     -0.27637942084034
  C           4.87549698156028     -0.85263292341727     -1.25340536947240
  C           5.29949823881983      1.34272701753176     -0.06026535523131
  C           1.72264078677750      0.88842958807960     -1.45038115327240
  C           5.92301455769948      0.06403843732607     -0.63799080849390
  C           4.43643513400183     -2.26063882876239      0.78305906667278
  C          -5.49336909326794     -1.50134873383957     -1.40470742546347
  C          -5.76148188536422     -0.65255334734344      0.90966541060622
  C           4.86256315724254      2.27640400213792     -1.19655843802883
  C           6.35218370424404      2.09054726387355      0.76976732065469
  H          -7.11255020382150      1.34109092778119     -0.30965986282992
  H          -1.13249872726640      0.45698093706989     -0.90217443034150
  H          -3.09810185153234     -0.45083464633190     -1.31439131043791
  H           2.84179350892893     -0.58034356748429      1.47206993930167
  H          -0.43999385187179      2.44224731083481     -0.04733456241813
  H          -0.76952187940947      2.04418227469767      1.61006595883453
  H          -1.28757291131278     -2.04683525782379     -1.12398313604915
  H          -1.11495745286701     -3.01433840264073      0.32726853677025
  H           1.27610035227227      0.98829654767677      1.95091902822757
  H           1.68436674608105      2.26435142913061      0.84014398344518
  H          -3.15848451330573     -2.01511611059710      1.28388689320222
  H          -3.45991283540460     -2.69979237161665     -0.28789486112615
  H          -2.74979858877023      2.79764752193836      0.36498031500277
  H          -2.75034511062711      2.00044698025466     -1.19560275451047
  H           3.62009777663782      1.86228695981653      1.18947361148614
  H           4.62850199434355      0.59949817253170      1.80700146755971
  H           2.73893365045988     -1.81375992103447     -2.09711746873994
  H           3.09670612306296     -3.19839064330608     -1.11082455024160
  H          -4.94516152433638      0.94282288079437     -2.04444741588212
  H          -2.23225613809075      1.13264279450818      2.53616743808227
  H          -3.93086745892131      1.29116230298839      2.16806441907582
  H          -3.23742864023582     -0.29524389983012      2.40745609361155
  H          -0.04340943615645     -0.35057996481484      2.64263021384804
  H          -1.45182173496194     -1.38871327098529      2.53281975173454
  H           0.15431654231817     -2.05802080874999      2.26772392549550
  H           0.79550259096305     -3.01579456087042     -0.51806085835506
  H          -5.12271412616511      2.18747070563298      0.72308032633520
  H          -4.93375022124052      3.03295893837021     -0.79638046363334
  H           5.35849435644268     -1.73472204727379     -1.68545500949482
  H           4.39227111995657     -0.33913355096954     -2.08753106945815
  H           2.22692165113285      1.85304889251381     -1.45740427080374
  H           2.21286933608111      0.24015509211537     -2.17294726463441
  H           0.70448587669017      1.05015528126915     -1.80280643225428
  H           6.45738920831860     -0.46429545743754      0.15692722975510
  H           6.67498071917377      0.32987706612525     -1.38734258422533
  H           5.09430839716695     -1.72285759414696      1.46682595040324
  H           3.65857942958516     -2.73950603253819      1.38149449147899
  H           5.02470897507219     -3.04457164154301      0.29967529323704
  H          -5.45657060479805     -2.50483473528181     -0.98030310990206
  H          -6.52639516391903     -1.29310981051510     -1.68246945085405
  H          -4.88917277076899     -1.49624123043911     -2.31532634008821
  H          -5.63024695371694      0.15882194857549      1.62258096618747
  H          -6.82942898786566     -0.75715359168232      0.70983062151185
  H          -5.43770935942469     -1.57234985441871      1.39742781107084
  H           4.32228729716046      3.14166266734190     -0.80482992554541
  H           5.73971303803552      2.64720823649885     -1.73248148664355
  H           4.22181350249513      1.78388206085232     -1.92256057314799
  H           6.72135743768859      1.46941009965015      1.58898626751561
  H           7.20638410500552      2.37337411238441      0.14981193100598
  H           5.93582041367193      3.00437092979053      1.20185836131647
