75
Coordinates from ORCA-job 92094 E -1206.851133126044
  O           0.97359482448414      0.99513855071875      0.10030339614554
  O           5.27125518944848     -2.05312740481647      1.72305189608146
  C           1.13412918867776      2.04262860497949     -0.88361830148426
  C          -0.28026000267461      2.32885475007174     -1.39615439964586
  C          -3.86394259417367      2.85540747181722      0.12670153960567
  C          -1.32301743311581      2.61561789373342     -0.31864039049769
  C           2.00858888512330      1.51772941663499     -2.02561107973117
  C          -2.72283466626322      2.79901998445725     -0.90576677455394
  C          -3.92653152656751      1.61192899196068      1.02672650047002
  C          -4.02877027887621      0.28208964058298      0.28437398701761
  C           3.37571439343086      1.05752428992429     -1.52914958534389
  C          -4.13847638316172     -2.28543156326460      0.52759932644323
  C          -3.94437894578898     -0.92542434046277      1.21351573876211
  C           1.75676505784659      3.26043536409615     -0.20118138310932
  C           3.25653867579990      0.24743045472498     -0.26432942997833
  C           2.08014944294206      0.28283873613426      0.48187574628345
  C          -3.22514348066207     -2.49253468799857     -0.69395299381932
  C          -3.79723590243466      4.12523353007401      0.97824470213572
  C          -1.72664578267133     -2.33571488335754     -0.44004965186662
  C          -3.99514907202959     -3.41920351920065      1.54537172718837
  C          -0.89336523110330     -2.54998166085179     -1.70259450610773
  C           1.94376777588659     -0.46763851431216      1.65511429663768
  C           4.31286473036242     -0.54521745396560      0.17882608429979
  C           0.60028921070597     -2.25065237553031     -1.53401766667711
  C           3.01403301099918     -1.24696541601635      2.07249819189966
  C           4.19761711894031     -1.28837974033135      1.34125245553525
  C           0.65047118321007     -0.43444715360313      2.41525077817121
  C           1.31652892440629     -2.26017852561805     -2.88425754190045
  C           1.28566262246596     -3.21082265861306     -0.56159258966643
  H           5.05434699891755     -2.52140242799500      2.53637112466723
  H          -0.22280620323745      3.16417175480840     -2.10119736119377
  H          -0.60600794052631      1.45632544000146     -1.97077558788333
  H          -4.79870184155535      2.89159704105470     -0.44618821352850
  H          -1.31753649654437      1.78355008002273      0.38502220795361
  H          -1.04470000262632      3.50484943862326      0.25115068549390
  H           1.48533537850690      0.67889205260789     -2.48854574070226
  H           2.11431739684397      2.29266232220362     -2.78735746025650
  H          -2.91922965432610      1.98409629054852     -1.60784893899782
  H          -2.74851203188725      3.71675822492349     -1.50325381702406
  H          -3.04442515041039      1.59241926368263      1.67518374090500
  H          -4.78440592423217      1.71416531790929      1.69977570903372
  H          -4.96656909262406      0.25000244974300     -0.28257960867326
  H          -3.22749592648779      0.21592981526166     -0.45325388214550
  H           3.87217721019004      0.46422934070417     -2.30015664011546
  H           4.02362513019672      1.92125753075115     -1.34932070853879
  H          -5.16822057429227     -2.31261765504630      0.15015281366046
  H          -2.97434737329907     -0.91207938408324      1.72284008617112
  H          -4.69592037492549     -0.82791645861449      2.00448312795138
  H           1.12070666630485      3.61080080000563      0.61011773346208
  H           2.73138642014783      3.01856799914510      0.22165623658163
  H           1.88574908460380      4.07325557212868     -0.91842946232989
  H          -3.41478617880892     -3.49275820753519     -1.09836503363166
  H          -3.51962976948154     -1.79379743900831     -1.48254541548443
  H          -4.66348342833301      4.19830685475636      1.63949704315028
  H          -2.90411217846009      4.13461447999300      1.60738512161642
  H          -3.77543794681929      5.02135544113449      0.35366332062649
  H          -1.51850276790843     -1.33242619827513     -0.05655375134052
  H          -1.40753101715412     -3.03314424969434      0.33779805940919
  H          -4.70783728554089     -3.30111849051882      2.36479772952605
  H          -4.17408223038716     -4.39230123749838      1.08236507603152
  H          -2.99421989267232     -3.43680801402627      1.98265006993602
  H          -1.02140997165969     -3.57936081465927     -2.05951628292235
  H          -1.29081660502931     -1.90356522692525     -2.49367790297935
  H           5.23407967068034     -0.59236844538185     -0.38850269493468
  H           0.68024103549268     -1.24290125726873     -1.11882742612598
  H           2.91741611015947     -1.83769007406941      2.97778269204981
  H           0.71906597583713     -1.02641844281188      3.32764287945361
  H           0.37569767468794      0.58830060262350      2.68072026204549
  H          -0.16876054010889     -0.82886734532558      1.80962507876358
  H           2.37104764593716     -1.99921669015104     -2.77008120329068
  H           1.26797654321238     -3.25103279478824     -3.34535827082327
  H           0.86476729805478     -1.54919742319335     -3.58059502859416
  H           0.83541277424869     -3.17608865116146      0.43054307537216
  H           1.21948873542383     -4.24053349854646     -0.92679965783066
  H           2.34077171468483     -2.95794546802252     -0.44751985680851
