64
Coordinates from ORCA-job 92101 E -1946.078965337397
  O           2.80442534790875     -0.99117798429363     -0.15574910263387
  O           3.13791879572222      1.80108590232458      0.74335973191755
  O           1.99361277526141      3.14185523581843     -0.68809678469168
  O           6.36369064481704     -0.75670462220560      0.54030020698527
  O           1.31477907235152     -2.70033030174632     -0.31083862208611
  O           6.03587576552610     -3.48705080885835     -0.17596137506744
  O           3.41879992432821     -4.58589813059375      0.31829921826278
  O           0.73056502253637      1.01029434903742      1.98486787905060
  O          -1.49092751574536      2.79626274422820      1.56351938131629
  O          -1.51917135211825      4.00858852936164     -1.07049789520742
  O           0.05527855854352     -1.12136251755291     -2.07722575419806
  O          -1.90350738386578      0.41590064728011     -2.61473316066856
  O          -3.86475658096631     -0.16777674601508      2.36620987396936
  C           3.99163039284258     -0.44262981652127      0.42060012473620
  C           5.18372820886271     -1.27119342341931     -0.05355730509267
  C           4.96110613376172     -2.72152448571485      0.34540904795644
  C           3.61394240144814     -3.25226533932275     -0.13490903478645
  C           2.50863158969963     -2.29194421515404      0.29186806224345
  C           4.07881013448960      1.01627903986953      0.02084530092650
  C           1.90604043376627      1.98743728898334      0.14255355856876
  C           0.86147681635322      2.20561101254607      1.23528039691914
  C          -0.46239623244070      2.58861476638752      0.59008657209299
  C          -0.31688558464679      3.76255231290026     -0.36210687990181
  C           0.78109628264069      3.42588925721459     -1.36688176211785
  C           0.17623470859751     -2.04749991156799      0.08313278249804
  C          -0.48182696019799     -1.24284183235520     -0.86768695835229
  C          -0.35463484667705     -2.20876233629669      1.34591078557802
  C          -1.67076805957557     -0.58222375710541     -0.49385870036477
  C          -2.17889947248597     -0.73846472435286      0.81359360167982
  C          -1.52644328115683     -1.55588773507973      1.71747917843315
  C          -2.33358721591988      0.29073909936702     -1.46044966906997
  C          -3.40013125310563     -0.01676213945937      1.25009279020658
  C          -3.51452378832624      1.06106280110663     -1.01917485062333
  C          -4.02595210326929      0.91574786564040      0.27622476186638
  C          -4.10177930525455      1.96690004153499     -1.90178820600336
  C          -5.12613117406365      1.67184553141088      0.67157973478014
  C          -5.19266937958337      2.71855299707252     -1.49809207779347
  C          -5.70656294136340      2.56919570391466     -0.21043588483839
  H           7.07782585747247     -1.37681782480302      0.34775191119640
  H           5.81623083561276     -4.42010140539033     -0.05866605815673
  H           3.28828502639667     -4.57781406668724      1.27488534066877
  H          -0.14944696515329      1.00707840718317      2.38258882997574
  H          -1.22592858084767      3.52016685978244      2.14596268796740
  H          -2.25624706460413      3.88791305176898     -0.45829129770127
  H          -0.55533009408809     -0.53303047029791     -2.59440324395504
  H           3.92902902531427     -0.48984452506168      1.51566140704483
  H           5.24393794863756     -1.21398513574334     -1.14832704582373
  H           4.97800933378674     -2.76279983325185      1.44698248619003
  H           3.60292376906360     -3.30559029456276     -1.22439990586143
  H           2.40094288175609     -2.27924991540384      1.39039746089710
  H           3.93335017179877      1.12340727754912     -1.05762491121118
  H           5.06754985424306      1.39150920579951      0.27875469235733
  H           1.62157830008349      1.12013283260031     -0.46660338038280
  H           1.22255998218570      3.02525735485215      1.87342298845928
  H          -0.81095191422499      1.73294254106610      0.01368340858992
  H          -0.01430189169158      4.65641431855412      0.20332595445046
  H           0.97384309281626      4.27036319347278     -2.02588553006146
  H           0.45636367166404      2.57409938897368     -1.97932964212624
  H           0.15756903768020     -2.85260061979421      2.04891750864259
  H          -1.94158836474960     -1.67357765763652      2.70806772247567
  H          -3.67866309804863      2.07552200621636     -2.88989648855037
  H          -5.50274598703254      1.54415741161314      1.67679398245149
  H          -5.64323417761782      3.42536327300344     -2.18263887099631
  H          -6.55909622914802      3.15830832781367      0.10239902696958
