39
Coordinates from ORCA-job 92123 E -1070.784116586791
  O           1.44950294865594      0.38610903261368     -0.69995708218152
  O           4.79883102952649     -1.09818320224176      1.10029434077818
  O           0.25952220271508     -1.46925543034638     -0.13028525344014
  O           4.75177431908751      1.68392484036973      0.28644296320625
  O           2.25122738189003     -2.19006727434773      1.72252240799478
  O           1.19939285173112      3.18106783422069     -1.53235187551947
  O          -6.05287118941161     -1.28478077191937     -0.16631153435095
  C           3.60694288105572     -0.34364205142155      0.94882587985312
  C           3.74799739262653      0.74707333080424     -0.10415022350070
  C           2.48978362809697     -1.32782040468795      0.62854052338720
  C           2.38299287710199      1.39656924465317     -0.34986380336404
  C           1.20952211417670     -0.56099992642028      0.32473189829225
  C           2.39619835519823      2.41789991695394     -1.47394558228681
  C          -1.05955120913489     -1.10983734732913     -0.12817892296933
  C          -1.50737034186065      0.20867966571136     -0.11234798651787
  C          -1.97220385016385     -2.16527530895710     -0.16342724626260
  C          -2.87327766135364      0.45629424842498     -0.11287432087494
  C          -3.32536336447191     -1.90131890675920     -0.16951182614756
  C          -3.80120025659863     -0.58463454445799     -0.13930901846247
  C          -5.27160184764321     -0.35316568366706     -0.14462747003192
  C          -5.78195274279896      1.07320362245381     -0.12248328737791
  H           5.53525486324392     -0.47840956009805      1.17403194608605
  H           4.46934144974182      2.11814734157347      1.10177448565634
  H           3.09346839235461     -2.59848375263366      1.95729439533424
  H           1.24681806142107      3.88745952645539     -0.87999295797173
  H           3.35204582378893      0.14241354829953      1.90582152867106
  H           4.11055247859186      0.30853218817884     -1.03622128420506
  H           2.75693363034604     -1.89340502995247     -0.27218278799306
  H           2.05763579654041      1.89654272313027      0.58014467938570
  H           0.84220841130526     -0.05134005400646      1.22840071938010
  H           2.46853855070388      1.88431840601417     -2.42275283363072
  H           3.27863454233478      3.05495031211148     -1.36861998722578
  H          -0.80628836311433      1.02822784722580     -0.15220406854138
  H          -1.59309809537524     -3.17816145698360     -0.17539330013733
  H          -3.20790476162485      1.48444156000821     -0.10827638418795
  H          -4.04629861372217     -2.70696216238241     -0.19081928901520
  H          -6.86889713043523      1.05524772984229     -0.12965271313700
  H          -5.43255142024958      1.59819741878696      0.76942460616264
  H          -5.42137313427611      1.62878553078012     -0.99111833485450
