86
Coordinates from ORCA-job 92156 E -1400.953438133887
  O           6.16223367670569     -0.54353703109694     -0.19511630633486
  O           6.24829474253577     -2.54105216056760     -1.24154555806717
  C          -0.29660586279178      1.15028483222713      0.21093672843879
  C           0.51612744956761     -0.11382367177862      0.61168186756719
  C           2.03458330539821      0.08567541640512      0.95701520223156
  C          -1.66468511785943      0.64725632109488     -0.43617276764866
  C           2.65791883868964      0.84110839656864     -0.25447407838481
  C           0.49699243902114      1.99962840424465     -0.80256826732058
  C          -2.41043795640239     -0.21263762656372      0.58737465042582
  C           1.96887948071917      2.19295545995493     -0.44427181706363
  C           4.21543219196240      0.89508350499889     -0.33537715271838
  C          -3.92178051120913     -0.36481796395564      0.51967911121662
  C          -4.63845598787332      0.96496240255091      0.18709824668889
  C          -2.51253753519110      1.85617627988166     -0.90927275389082
  C          -0.24728608741618     -0.93134290922441      1.66267460101120
  C           2.67603779474336     -1.31727040690994      1.03336476493746
  C          -4.00183410511174      1.56214007005662     -1.07739001077570
  C          -0.57518392186300      2.03422270691387      1.44235319305206
  C           4.71054678041805     -0.55659696568900     -0.20828139051475
  C          -1.73412799440583     -0.91277436807519      1.49449155079659
  C           2.27333150829510      0.79263932943151      2.30769652731237
  C           4.20159266616578     -1.28784899273839      1.01875656013380
  C          -1.42620263359786     -0.23918829868649     -1.68751609890644
  C          -4.31902710550384     -1.51373801194044     -0.43026047090059
  C          -6.14615274762632      0.72615137392686     -0.02527707435877
  C          -5.83247406628476     -1.74918545882312     -0.56221576179978
  C          -6.48736019582618     -0.41975203459957     -0.97277079828661
  C           4.86945779101828      1.81388775330374      0.70681828908564
  C           4.62957860310127      1.39868010785349     -1.72999868984957
  C          -4.48639224609054      1.93444327511566      1.36685739327761
  C          -6.07854585987567     -2.79416995353290     -1.65505520872607
  C          -6.42521795627839     -2.27352864935439      0.75286900108656
  C           6.80204093996668     -1.59458612478783     -0.74071898789303
  C           8.29409166501265     -1.42047132841861     -0.63909511095299
  H           0.55289247338912     -0.72898018011007     -0.28891668892694
  H           2.37185900127135      0.23597733757013     -1.12601988780337
  H           0.47033357118967      1.53425544375771     -1.78802061735362
  H           0.01494847716285      2.97369009444466     -0.91115789676467
  H           2.07154115576052      2.80867261063854      0.45051689593357
  H           2.44338982997480      2.75465220722027     -1.24904852272585
  H          -4.24420894832460     -0.66088149953881      1.52210193288862
  H          -2.41038805411201      2.68717292757961     -0.21631329106295
  H          -2.10840389349665      2.20945430910149     -1.86055616773048
  H           0.09476487406296     -1.97021420968826      1.64005906626793
  H          -0.01681318583436     -0.58241093579151      2.67461944695279
  H           2.33527174449269     -1.83709305362269      1.93066502107856
  H           2.33121460960483     -1.91034160896515      0.17967295451020
  H          -4.16002824352766      0.88836763776271     -1.92156617436530
  H          -4.51935250143575      2.49167797425225     -1.33404931153397
  H          -1.12204999987101      1.50395038918681      2.21829657404247
  H           0.35159003318511      2.39488178354072      1.87706566596461
  H          -1.15265025451444      2.91701686785894      1.17352348060524
  H           4.39899183017896     -1.10759479186533     -1.09763630930789
  H          -2.29211283160650     -1.52926666239279      2.19519962638200
  H           1.49866609995499      0.54057697866491      3.02901985614735
  H           3.21901924040312      0.48634301157664      2.74940605996353
  H           2.30054908443371      1.87565746650919      2.22615233561459
  H           4.59887485066639     -0.81193497382594      1.91730450472265
  H           4.58915363197543     -2.30788187485326      1.00429088730245
  H          -1.06594839542811     -1.23214313680221     -1.42769665613138
  H          -2.35778071037001     -0.37117017471552     -2.23349516137108
  H          -0.72035479879596      0.21603934753930     -2.38087701068278
  H          -3.92305299308433     -1.32718789862936     -1.42863234089747
  H          -3.83176059798257     -2.42770162352580     -0.07966336214379
  H          -6.60492822663064      0.53207745468849      0.94823705369122
  H          -6.59863951765322      1.65412170524881     -0.38893320936976
  H          -7.57355719988846     -0.54425936129583     -1.02190969575710
  H          -6.16305562015042     -0.17252966783131     -1.98825715973296
  H           4.76836436369920      1.44651145708064      1.72424292696566
  H           5.93417187533607      1.91327808033000      0.49718378308874
  H           4.42758571789507      2.81007532481148      0.66610804626252
  H           4.41519625644281      2.45936616181680     -1.85630411498992
  H           5.70210008388299      1.26445340669355     -1.87247310526070
  H           4.11001580799471      0.84955924429596     -2.51877084942692
  H          -4.99320178839550      1.53621827896942      2.24874732090297
  H          -3.44587812746867      2.09991698728184      1.63880438030629
  H          -4.93485156102495      2.90345073205034      1.13210724901547
  H          -5.60357938369316     -3.74553190786034     -1.40264348082650
  H          -7.14790373322953     -2.97782498257130     -1.78705085820694
  H          -5.67394998595119     -2.46079596033457     -2.61375215589773
  H          -6.28155418261190     -1.58319390836628      1.58340909476248
  H          -7.49919484953498     -2.44588841104559      0.64813328143856
  H          -5.95934108699696     -3.22257312774167      1.02879373352226
  H           8.58537437965360     -1.33164646511273      0.40857786940068
  H           8.79223053226503     -2.27288592365570     -1.09245389229781
  H           8.59668216462422     -0.50014455811499     -1.14076951003451
