79
Coordinates from ORCA-job 92158 E -1247.082186318515
  O           6.33997425351611      1.40697123119286     -0.46345244968957
  C          -1.01954558326216     -1.01778160000545      0.45104704461256
  C           0.43599242840543     -1.00408317513749     -0.20973459932428
  C          -1.89598026427406      0.05257119762440     -0.28440206142355
  C           1.04469172842431      0.41981235828059     -0.00759218683913
  C          -3.35742777333866     -0.04101093964329      0.14982142888458
  C           2.56724704953556      0.61346212884768     -0.32398211271829
  C          -3.95921753526862     -1.43993847104378     -0.11680889058109
  C          -1.67221929769310     -2.42206170918782      0.33872159385335
  C           3.36459581229952     -0.50599479306077      0.40082510828645
  C          -1.28611381119441      1.44790582386600     -0.14676213318834
  C           0.15827909856152      1.49672980820237     -0.64428960278605
  C           1.35435451678484     -2.03447563963912      0.47651253860725
  C          -3.16684967264468     -2.46556114075945      0.69001144501352
  C          -4.39855918572976      0.93123864964623     -0.44451516827112
  C           2.82207455029727     -1.89788714055370      0.08515965632144
  C          -5.40754209703923     -1.21514801126365      0.33575216755067
  C          -0.95845971841593     -0.70183774103995      1.96264492944013
  C           0.35325595031872     -1.37796491852276     -1.70424145547278
  C           2.98808801571617      1.98354867823792      0.28764510325360
  C           4.91654928685094     -0.41375313693404      0.22548129279208
  C          -5.75900868371593      0.19096312743856     -0.19666602302127
  C           2.88850254906179      0.67433893217963     -1.82756265087535
  C          -3.96502254461791     -1.82785749698303     -1.60582969454380
  C           4.43096759020909      2.02258478729985      0.83285486137928
  C           5.33782335441468      1.05462100901953      0.11720833720335
  C          -4.42554629485349      2.33458922799617      0.10980541105130
  C           5.48033518267126     -1.20683562446547     -0.95983621169773
  C           5.59565021574180     -0.94187829202880      1.51074156894706
  C          -4.39810639415915      2.49586405833222      1.60434449899543
  C          -4.51779323056311      3.38941756150853     -0.69735158221736
  H          -1.87643031381187     -0.18920686304422     -1.34899342278072
  H           1.00833076138267      0.58842585066252      1.07067418542759
  H          -3.40081895969663      0.09123252137416      1.23439041763937
  H          -1.55623264638797     -2.81439237464250     -0.66908684751996
  H          -1.13758140958243     -3.11409984593696      0.99231542013677
  H           3.16951600899888     -0.34337743798644      1.46868701128448
  H          -1.88400125250577      2.16519980341354     -0.70831376501521
  H          -1.32822618425751      1.77566226197893      0.89537290732625
  H           0.56964137653587      2.48715617859076     -0.44277513439297
  H           0.15855021158204      1.38924271822272     -1.73092817156129
  H           1.28991728842162     -1.92476994676800      1.56023721042974
  H           1.01079799596680     -3.04492669812124      0.24452087538635
  H          -3.31463801084118     -2.27006968503046      1.75565290211366
  H          -3.54653153525739     -3.47578073046433      0.50810311185635
  H          -4.23222135493520      1.01013497128541     -1.52102876542886
  H           2.95936056230870     -2.12709329690022     -0.97182616727039
  H           3.40051679589188     -2.64903755970547      0.62871282316613
  H          -6.09077153804889     -1.98602990144593     -0.02619222017394
  H          -5.45161367373256     -1.22897994465680      1.42831703004182
  H          -0.39109200509070     -1.46145837963128      2.49813968585437
  H          -0.51771793947849      0.26355306898108      2.19388565923532
  H          -1.95598461321688     -0.70106388080885      2.39641167076888
  H          -0.21367970074331     -2.29454448049523     -1.85349582550882
  H          -0.10398272573701     -0.60517419328635     -2.31640885132769
  H           1.34094316273663     -1.56105570554660     -2.11477480407140
  H           2.87849901121101      2.76058107817175     -0.46931806409398
  H           2.31184073032637      2.24948284907326      1.10187572560898
  H          -6.38261515411930      0.74065727506172      0.50797808951719
  H          -6.32325265886836      0.13867703187726     -1.12786452096175
  H           3.89594233059746      1.05636176859324     -1.99526628187095
  H           2.82167248625662     -0.29043717050849     -2.32196730815597
  H           2.20715445454044      1.35572904557739     -2.33614718059433
  H          -4.41952896676910     -2.81482816790720     -1.71952866395968
  H          -4.54599529406475     -1.12959323709770     -2.20820600379006
  H          -2.96661920765492     -1.87569213774260     -2.03677355022099
  H           4.85803470782615      3.02195431777989      0.76993481377438
  H           4.42062909055475      1.73168692120864      1.88733339201571
  H           5.34521030601167     -2.27725927589765     -0.80726498042316
  H           5.01188976140369     -0.93416341542327     -1.90273019643516
  H           6.54593024053195     -1.00466086185456     -1.05267782556396
  H           5.30803316870590     -0.36255348747468      2.38978024299174
  H           5.30740046353688     -1.97982923518329      1.68512779974547
  H           6.68102174375281     -0.90210393552053      1.41242036932751
  H          -3.42104392790660      2.22264979156823      2.01030633281821
  H          -4.60689132721823      3.52555071088798      1.89299267035227
  H          -5.13162291617062      1.84777027281155      2.09172835120038
  H          -4.58490436959391      4.39919376074759     -0.31080793730511
  H          -4.52650846943001      3.27621890180921     -1.77505637313489
