86
Coordinates from ORCA-job 92157 E -1400.938086192338
  O           6.08909512921171      0.41558545297489      0.20469538909064
  O           6.25788431419220      2.02778506136859      1.77470838337256
  C          -0.38938641903264     -1.22280366286420     -0.28857754548799
  C          -1.75976787028733     -0.98128359342459      0.49624835922885
  C           0.38843996648119      0.13376873220029     -0.33273667252665
  C          -2.59463824444896      0.07013299830973     -0.30915199840319
  C           1.88506418734084      0.07545730664243     -0.80711884609949
  C          -4.00608364877750      0.20297205184103      0.25877556257299
  C          -4.76791722472622     -1.14232662852106      0.25311220597684
  C           2.58970149178590     -0.97939345945327      0.10026584431971
  C          -2.55528491241287     -2.30517686318341      0.65576420455317
  C           0.46515512391923     -2.28400582179952      0.43339065248447
  C          -0.44254900657705      1.21946519020565     -1.02975757639999
  C          -1.83646985829206      1.39269813979956     -0.42389334150736
  C          -4.00516024158477     -2.13027962782319      1.13209208542546
  C           1.91639156478341     -2.34395283113308     -0.03771130483172
  C          -5.00002505337115      1.19549229367340     -0.38085924141312
  C           4.14919286484459     -1.03251950360382      0.05804354479803
  C           2.52726670373962      1.45035278458624     -0.51424007722266
  C          -0.66944745478266     -1.75802180030888     -1.70972245341802
  C          -1.50912141531913     -0.46664351051078      1.93202897368986
  C          -6.13404396838740     -0.69581257501837      0.78941806403781
  C          -6.39539665555105      0.65553271377719      0.08946931003010
  C           2.02212781949798     -0.19804614207899     -2.31808461950899
  C           4.64180139202795      0.40085404561569      0.32100286994952
  C           4.05052949037952      1.44360425738315     -0.60609097149159
  C          -4.96146781253287     -1.72803134323366     -1.15653592270711
  C           4.65695854833651     -1.90857221374813      1.21787931277618
  C           4.72434668744744     -1.60381820659058     -1.24610433934523
  C          -4.83035714498253      2.65605136744891     -0.04159577288400
  C          -4.63682534640760      3.01970454037827      1.40433104373236
  C          -4.89639610757689      3.59191401314232     -0.98634477301673
  C           6.77045324433227      1.27478838926107      0.98499644597344
  C           8.25091155808135      1.16100273420301      0.73537530658099
  H           0.48375312144698      0.44637522808900      0.70909703721535
  H          -2.70613946683049     -0.31319148392721     -1.32536044916273
  H          -3.92477784209860      0.48625990702155      1.31191511148040
  H           2.36788918555068     -0.64106188125126      1.12215054460390
  H          -2.57709211754232     -2.85209184020503     -0.28450595524550
  H          -2.02958367518665     -2.94975972280000      1.36294038219578
  H           0.48326830618360     -2.08136566011048      1.50512287126720
  H           0.00238053611415     -3.26597817328514      0.31198994785578
  H           0.07684938673156      2.17655951463686     -0.97937781989099
  H          -0.54961339432424      0.99369345603035     -2.09273237030315
  H          -2.40749108051671      2.08943135783475     -1.03708259755911
  H          -1.75245351212506      1.86257468577307      0.55928280349578
  H          -4.02661842257601     -1.77445984246666      2.16580499974075
  H          -4.50010910980371     -3.10646127410334      1.13394130203960
  H           1.97641467805928     -2.69982722789039     -1.06745455232879
  H           2.43728450443836     -3.08832546570168      0.56455324233689
  H          -4.93635987614017      1.10507249178804     -1.46739941224894
  H           2.13767355294071      2.20263789657068     -1.20111644305178
  H           2.23866875692438      1.76834076399802      0.49336170643795
  H          -1.39456210002770     -2.56900909514509     -1.69132010364341
  H          -1.04516229850891     -1.00037747126650     -2.39203270646161
  H           0.23313571282116     -2.16533646982419     -2.15478315525274
  H          -0.93194192846769     -1.18572453594022      2.51114049576160
  H          -0.98658508728772      0.48433192037545      1.97433520611391
  H          -2.44982613112352     -0.33038512655255      2.46123221757057
  H          -6.92348656012130     -1.42677837253178      0.60336483829161
  H          -6.06960613074357     -0.55577368026496      1.87202604636498
  H          -6.88545500428596      1.36321894234813      0.75776233211793
  H          -7.05404895126583      0.54168124225639     -0.77164671264699
  H           2.00203993781701     -1.25488429156572     -2.56827161988842
  H           1.21833520595198      0.28520909224039     -2.87115835957087
  H           2.95431867862312      0.20272289253705     -2.70975057408027
  H           4.39638475577000      0.66787697296902      1.35058282113528
  H           4.38465160371933      1.25364467580240     -1.62789627046030
  H           4.43907014494895      2.42378818446361     -0.32451898238641
  H          -5.52152866677450     -2.66335784615970     -1.08451617495769
  H          -5.52702901950812     -1.05792179091361     -1.80395545533417
  H          -4.02098321846008     -1.94745893166589     -1.65867942214901
  H           4.18701823382150     -1.62491833567920      2.16255529125264
  H           4.45892372934362     -2.96550901454558      1.04326114125053
  H           5.73564672428688     -1.79391486854958      1.32722994731413
  H           5.80038663666493     -1.74453132694419     -1.14673455676361
  H           4.28010713134209     -2.57558131083778     -1.46406285620770
  H           4.55551108291709     -0.96084478330564     -2.10536616053048
  H          -3.65735722899789      2.69391061558118      1.76270271110164
  H          -4.70849444384877      4.09681134846880      1.55220697734923
  H          -5.38054745999106      2.53576800830971      2.04333291982540
  H          -4.82199408165265      4.64661817381549     -0.75045177194856
  H          -5.02441483947975      3.33160123151508     -2.03047957556950
  H           8.58418147318348      0.14093985397759      0.93208996232864
  H           8.46733740147969      1.37847198818161     -0.31160722860468
  H           8.78335246525747      1.85696108933325      1.37760232747076
