26
Coordinates from ORCA-job 92221 E -390.589677875894
  C           0.46439182586171      1.15574458418310      0.44707791728617
  C          -0.85591871086878      0.48091518207428     -0.04135373558342
  C           1.00575678868957     -1.03547355690218      0.40183000175583
  C           1.01228329812862      0.10796805499367      1.43608655832925
  C           1.54637654126287      1.09337644110906     -0.64852571307641
  C           1.88440924352543     -0.42513815293962     -0.72258455474681
  C          -0.42666070697688     -0.99357139264486     -0.07005143121894
  C          -1.34529868922306      0.97123251256507     -1.40825261718524
  C          -1.98133375231022      0.71049214348215      0.98034593922278
  C          -1.17071442091257     -2.02793697105748     -0.43669866625862
  H           0.30049255854227      2.15679755685854      0.84643914190476
  H           1.33617487911029     -2.01602317933084      0.74033567223463
  H           2.01388680626126      0.34984094969764      1.79632628831943
  H           0.36691572528741     -0.08175738768908      2.29225292152503
  H           1.21877598666586      1.50283761367927     -1.60178369231804
  H           2.41816279194320      1.67070598274566     -0.33630986528824
  H           2.94081526048673     -0.60778487887506     -0.51822755431033
  H           1.65366232860438     -0.86374711217788     -1.69318510353776
  H          -1.48529485108886      2.05551170597821     -1.40265525258592
  H          -0.65372837655456      0.71749039161641     -2.21014930526461
  H          -2.30580480631887      0.51314503384822     -1.65021743737785
  H          -1.69355384177650      0.40635557381216      1.98600038030473
  H          -2.25583401179547      1.76819370517138      1.00887763913644
  H          -2.86791534289270      0.13745350938247      0.70430269308544
  H          -0.78348410035441     -3.03958734597431     -0.41270178863732
  H          -2.19333142329673     -1.90760696360597     -0.77470043571499
