40
Coordinates from ORCA-job 92231 E -661.111267343014
  O           1.31002410759179     -1.97683466343435     -1.52506357114042
  C          -0.98855577932791     -0.27796518775016      0.64640238703164
  C          -2.33905551147746     -0.28658171440646     -0.03166381133708
  C          -1.78532734583104      1.00204311095724      0.54026449576477
  C           0.32449225573593     -0.36887637545752     -0.08325797217167
  C           1.38324359022889      0.59254366542527      0.54143491933775
  C           0.99657781995857     -1.77561965868783     -0.12995072990325
  C          -1.26591302919047      2.16331842689979     -0.27817349893535
  C          -3.47191052975967     -0.93293034803166      0.73699258538396
  C          -2.45557477617750     -0.49065503267780     -1.52545957517758
  C           2.70905416807513     -0.15659200402924      0.39079319748573
  C           2.30038671627557     -1.60117901655442      0.66708256737980
  C           0.03060500323506      2.77223266011862      0.29779869980646
  C           1.29299239956900      1.99591878198012     -0.00366359643421
  C           0.13887993034524     -2.93375596288440      0.35696891136071
  C           2.26520407444300      2.55496819841749     -0.72192903705615
  H           1.77034602627172     -2.82007128064317     -1.61061509777791
  H          -0.96955774818052     -0.72089900756497      1.63728342002025
  H          -2.25790639834772      1.32160568433728      1.46431961559881
  H           0.18966852871855     -0.08689884983459     -1.12467645545153
  H           1.15982687078685      0.64906646795091      1.61567624863196
  H          -1.09093322223499      1.87821764537207     -1.31609953155609
  H          -2.03251366927367      2.94281106950162     -0.30480104017775
  H          -3.36596325709329     -0.77342550332726      1.81170078969913
  H          -4.43827638509499     -0.52220020998199      0.43071322398175
  H          -3.49751480318071     -2.01210143154682      0.55948140524758
  H          -2.46429714751144     -1.55786901102025     -1.76266064569864
  H          -3.39070502136225     -0.06120834446093     -1.89525182673738
  H          -1.64031951517474     -0.04301248192901     -2.08860530667631
  H           3.07917780666740     -0.07893704055333     -0.63256472023473
  H           3.48333037591803      0.21681163646361      1.06198359236834
  H           2.09764625896305     -1.73683825978392      1.73414212735629
  H           3.05151223009816     -2.34061523069009      0.37941416307695
  H           0.15062561254028      3.78527788977894     -0.09098678284186
  H          -0.08589236078708      2.86381745799394      1.38448289161145
  H          -0.13426924955745     -2.82171786632775      1.40647814647242
  H          -0.77519598674392     -3.00871044563456     -0.23226618197937
  H           0.69033607753313     -3.87334874606235      0.25820281896351
  H           2.16619074365925      3.56342909874230     -1.10526004463306
  H           3.18675513969221      2.03913687933563     -0.95355978065894
