14
Coordinates from ORCA-job 9225 E -722.613959264530
  S          -1.82115299582401      1.30407988826755      0.00014828643166
  N          -2.50403624490829     -0.22230438601668     -0.00011951640428
  C          -0.22020168716055     -0.68174071505807      0.00009995554106
  C          -0.18894999999270      0.72803410779312      0.00008793031483
  C           0.98159452053214     -1.40288163995012      0.00011607162876
  C           1.02175920333736      1.42420709816226      0.00001848423507
  C          -1.57789497801407     -1.13740581497478     -0.00001628269910
  C           2.17584873842870     -0.71343416969851      0.00004795801574
  C           2.19311758729645      0.69208811168459     -0.00002531526990
  H           0.96607063712437     -2.48551491401886      0.00013725518939
  H           1.04429713138946      2.50579477632156     -0.00003243833367
  H          -1.87221528029962     -2.18074827536679     -0.00011013915503
  H           3.11231263448383     -1.25541544257288      0.00002504013187
  H           3.14344973360693      1.21036237542762     -0.00010928962642
