12
Coordinates from ORCA-job 9264 E -1312.384260164616
  S           0.20845983404616      1.76911733683506      0.30499869887436
  S           1.42608710249423     -1.06485115497664      0.32062926916764
  S          -1.63702538199392     -0.70241320749159      0.30486745617427
  C           1.46286882622650      0.62589396588858     -0.33896048200682
  C          -1.27148209482997      0.94944742455172     -0.35312639846746
  C          -0.18453515836194     -1.58033422680778     -0.33912714242521
  H           1.40234152382451      0.59394564729987     -1.42837048043761
  H           2.42914347200374      1.04254866478082     -0.06118000835787
  H          -2.11655566328245      1.58046749811916     -0.08458465845733
  H          -1.20903809658395      0.90287673049227     -1.44189722500370
  H          -0.17099896455545     -1.51292233940021     -1.42851646475983
  H          -0.30958239898746     -2.62521933929127     -0.06160256430044
