79
Coordinates from ORCA-job 92785 E -1247.084685688068
  O           6.55783974256344      1.33754853514208     -0.37328643446552
  C           1.22626536506023      0.50853561848059     -0.00256206231251
  C           0.57244125151913     -0.84838582007122     -0.38888888659741
  C           2.75531825207404      0.68049547454563     -0.28693009114195
  C          -1.67024337905535      0.39521934681695      0.29254270462920
  C          -3.17016058425760      0.14437123220123     -0.12657126971960
  C           3.50681898678339     -0.52804768238087      0.33253973586957
  C          -0.84092000175092     -0.88738253067326      0.21602610242693
  C          -3.71412503185764     -1.30217423858099      0.13058101110933
  C           0.40031117379597      1.72823101126950     -0.46058703080530
  C          -1.09237116451617      1.44864234219802     -0.66202125376130
  C           1.43747953501820     -1.97565130644264      0.20908818346950
  C           2.91725442957548     -1.85756957965747     -0.13188373346009
  C           5.06337872621456     -0.47193983025777      0.17627929908184
  C           3.20755665635982      1.96992912762268      0.45414616952344
  C          -4.11221020581522      1.20463866629581      0.45401136432733
  C          -2.81496579699590     -2.04896720154109      1.13400416530286
  C          -1.38359844561160     -2.00581637804613      0.69426521374211
  C          -5.15420045778689     -1.25577602786731      0.67463692413949
  C           0.44684414301836     -1.08411210771874     -1.91215785528904
  C          -5.55403298350503      1.15225707988296     -0.09138044443025
  C           3.09834764296885      0.85021946414581     -1.77712848092944
  C          -1.56552360048134      0.92801651850327      1.74292446794355
  C          -6.05179199119432     -0.31969519828145     -0.12777323720660
  C           4.66793399087165      1.93946833882798      0.95343655388722
  C           5.53677923166468      0.98523602136171      0.17363562226164
  C          -3.70482567736256     -2.08455917072485     -1.19353091368959
  C           5.70972739739063     -1.11452570314863      1.42564082937315
  C           5.61490182619918     -1.19576859067703     -1.05840810842140
  C          -5.61424234551819      1.75906214258920     -1.49790491814553
  C          -6.44518441128821      1.97845412508079      0.84381607665344
  H           1.18311681919438      0.49804683159202      1.09130604172948
  H          -3.17692124217853      0.27803618831447     -1.21048933352493
  H           3.30562523413528     -0.46561225634506      1.40960551639141
  H           0.52493301343100      2.52499710251925      0.27395478114365
  H           0.79326044619894      2.12845867327243     -1.39528319427894
  H          -1.26939802046419      1.11208165025341     -1.68394520650629
  H          -1.65024064765404      2.38175803062394     -0.55655962948391
  H           1.32101631404374     -1.96271552349853      1.29646053246747
  H           1.07062466885721     -2.94512166295018     -0.13384404984259
  H           3.06841447394080     -1.98355479451747     -1.20470451562537
  H           3.45242037554954     -2.68400677786529      0.34228334930596
  H           3.07368267516687      2.82673679251993     -0.20722902958790
  H           2.56002133513337      2.14236173545536      1.31522486931633
  H          -4.15350454061627      1.09551436039355      1.53927673385351
  H          -3.71309085559001      2.20456029097177      0.26748793799459
  H          -2.93907907181964     -1.60796522389764      2.12874030840536
  H          -3.15537766479578     -3.08376110247996      1.22244764988569
  H          -0.82799755184765     -2.93340749358479      0.70833435838065
  H          -5.56624309163319     -2.26902532399399      0.66916647080090
  H          -5.13918262441845     -0.94085649219508      1.72251746040643
  H          -0.19210936720492     -1.94991084098556     -2.08914259254498
  H           0.01072644836024     -0.23651318067431     -2.43594993931241
  H           1.41153204351539     -1.28784198417827     -2.37087313425314
  H           4.11831507452413      1.21396492553720     -1.90346163987557
  H           3.01181289716452     -0.07433137357229     -2.34033286337033
  H           2.44727782292799      1.58451747630662     -2.24934464572163
  H          -2.05391601239222      0.26332480936539      2.45315552767983
  H          -0.52435682839886      1.01372064982799      2.04692799809769
  H          -2.01785171414351      1.91547473232606      1.83673380426887
  H          -6.09601597262419     -0.66721711882046     -1.16195782873646
  H          -7.07686334103035     -0.37182934063900      0.24703300663926
  H           5.12484768706148      2.92721420635762      0.93147416097758
  H           4.67949465099746      1.59516268056703      1.99199669682065
  H          -4.06687698050336     -3.10518209364914     -1.04397521390748
  H          -4.33974559950885     -1.60890690729404     -1.94198562252252
  H          -2.69745822778477     -2.13928774865019     -1.60476208321729
  H           5.43301570777641     -0.58947696911792      2.34147098230484
  H           5.38147119103073     -2.15088383177144      1.52256264717056
  H           6.79684211226481     -1.10785972385113      1.33977384349426
  H           5.43927600067253     -2.26875753189414     -0.98800118718205
  H           5.17030757566577     -0.83613850366003     -1.98370205094525
  H           6.68810887450584     -1.02644642064812     -1.12369100352424
  H          -5.31989497113144      2.81162843370665     -1.48491950288510
  H          -4.95266933368033      1.23349133803864     -2.18938839174746
  H          -6.62819807496785      1.69911713645439     -1.90077253397556
  H          -6.47690781541796      1.53671488452941      1.84297183928093
  H          -6.07184710641695      3.00116242091229      0.94221331558677
  H          -7.46905405997579      2.02834319199387      0.46551165680366
