82
Coordinates from ORCA-job 92802 E -1323.513626811387
  O          -6.80372482859260     -1.41229343017010      0.45480443070910
  O           4.01806169224076      3.21938253642374     -1.10255548238090
  C          -0.51487111487370      0.88902025637883      0.01703551555852
  C          -1.26361291713670     -0.37174973237639     -0.50325176318094
  C          -2.81001553119844     -0.24758799332943     -0.75161118259139
  C           0.91172090840097      0.41280888328656      0.55455896992196
  C          -3.41872058595485      0.32247695141768      0.56374437968815
  C          -1.31677462689075      1.56264560943233      1.14908984610399
  C           1.65800245969232     -0.32669920921020     -0.56109110866750
  C           3.17738332226061     -0.44068505149521     -0.52804148349187
  C          -2.81170968816958      1.69338071223335      0.86833689883943
  C           3.82804289848625      0.91922592724536     -0.17596489495241
  C          -4.96853846471599      0.24584654681633      0.71998129239241
  C           1.71911852211652      1.63372850478468      1.06919179495636
  C          -0.50196020311753     -0.98474041106204     -1.68329081621300
  C          -3.35799403733427     -1.67708011073037     -0.95748975323169
  C           3.22897172761219      1.41827830657733      1.14763488733949
  C          -0.35273968888222      1.92093721987198     -1.11702428843457
  C           0.98502817359411     -0.93024036443158     -1.53785796010833
  C           3.69598028318485     -1.61925738792819      0.35671745544152
  C          -5.38762520712575     -1.22334230966498      0.45448762991894
  C          -3.17092016049242      0.58104743695667     -2.00255650004912
  C           0.78810052943217     -0.56796873746143      1.74827436409395
  C          -4.87750945538771     -1.76453441502656     -0.86624124552747
  C           5.35522729499447      0.79514197253132     -0.07899513167157
  C           5.23629053456497     -1.68359099544675      0.35250006230448
  C           5.82516066603268     -0.34838272142215      0.80469383988323
  C           3.51379420396259      1.90292215454932     -1.31894731358738
  C          -5.74337644247612      1.21812807670077     -0.17929328889593
  C          -5.33206280486530      0.57164914149229      2.18039472434731
  C           3.07754515614610     -2.94881528596260     -0.07427243214458
  C           5.78525842369517     -2.82145316456428      1.21452751149002
  H          -7.14282188650796     -1.23095609272974      1.33689072901730
  H           3.46191794402169      3.65837942855186     -0.45122351388313
  H          -1.20678061985476     -1.09832786120392      0.30923487085612
  H          -3.04278228097607     -0.34997178116678      1.34811720629270
  H          -1.22150495383711      0.98971814531108      2.07112399990715
  H          -0.89244972231251      2.54809671678017      1.35480672935099
  H           3.48839921452407     -0.69403816078942     -1.54923041219977
  H          -2.99409975257511      2.38881638242506      0.04787698855217
  H          -3.28242692455331      2.13793567512087      1.74526397503941
  H           1.53118268967213      2.49679459953242      0.43394779964978
  H           1.34311091584088      1.90695851378756      2.05742414097257
  H          -0.79845789804118     -2.02960070116427     -1.81259106655020
  H          -0.77267688869776     -0.49720480903713     -2.62525666897424
  H          -3.03208177876057     -2.06621696185818     -1.92403100009909
  H          -2.92266811600748     -2.33300544815881     -0.19544527403722
  H           3.46909246967283      0.71282196512014      1.94373337097596
  H           3.71259117613484      2.35601585385065      1.43637874352703
  H           0.11328666747755      2.83771745589714     -0.75972548728891
  H           0.24657603688332      1.54061992266002     -1.94083318096853
  H          -1.31902221326352      2.20747147055299     -1.51870746476952
  H           1.54780176807405     -1.44772261244609     -2.30975809650619
  H           3.40201761193124     -1.43955694370958      1.39347862184445
  H          -4.94462074564959     -1.82918200859626      1.25936472450846
  H          -3.26002015806104      1.64548957717430     -1.80298929859411
  H          -2.42755002586037      0.45767533704082     -2.78752321686403
  H          -4.12054038908729      0.25959262359511     -2.42371973105947
  H           0.16995496317090     -0.16209218559947      2.54730775164538
  H           0.38072517023537     -1.53226862411760      1.45220844214221
  H           1.76802196194047     -0.75657652444054      2.17924975532177
  H          -5.35879302587130     -1.22496348006415     -1.68432760789066
  H          -5.19813980113953     -2.80418381801466     -0.95864752997714
  H           5.74989352814308      0.63252489454087     -1.08832353556324
  H           5.76793734148122      1.74796474653697      0.25784485979672
  H           5.55610042430552     -1.85617416242441     -0.68463918412379
  H           6.91728887910723     -0.40213179128091      0.78351692319159
  H           5.55060576343394     -0.17113448344419      1.85030160314230
  H           2.44329841456095      1.93539886165097     -1.52484795202866
  H           4.00336293415862      1.54714243031161     -2.22760840722305
  H          -6.80335991147983      1.19344099611705      0.07231050559416
  H          -5.38812833594799      2.23951907273934     -0.03507236404764
  H          -5.65841572014852      0.98047656087456     -1.23545500035835
  H          -4.76247911964988     -0.04624764066447      2.87906420801360
  H          -5.14547908145641      1.61698456202860      2.42342968921427
  H          -6.39578026593118      0.40304197771409      2.36539069899923
  H           3.36303516494654     -3.75462372185380      0.60059525734967
  H           1.99117055568025     -2.89742328836972     -0.08784517439074
  H           3.40825972799823     -3.22145147996432     -1.08113955550630
  H           5.40125080049315     -2.75345439172418      2.23683991061879
  H           5.52638932845980     -3.80520605116483      0.82437564008009
  H           6.87474212411953     -2.76484266234311      1.26746761943993
