46
Coordinates from ORCA-job 92979 E -814.741940524268
  O           5.33399819376412     -0.32050112249397      0.91842710277476
  C          -0.91352657356038     -0.70100411056207     -0.33798702652216
  C          -0.03116110409994      0.44331279198589      0.21865804969187
  C          -2.26304207870196     -0.61372125277436      0.35395421890368
  C          -2.99278365255335      0.72236477164612      0.08821184893509
  C           1.40851315231958      0.47288169015113     -0.39584480566515
  C          -0.72617078951108      1.82069082945882      0.17570832577299
  C          -2.16042259455780      1.82861460573428      0.73387520136494
  C          -0.23038382710529     -2.04400971690634     -0.10407190146463
  C          -3.35395316963948     -1.68106528431266      0.18095285657043
  C           2.01603661537288     -0.91934550629740     -0.28049363936900
  C           1.16390278499941     -2.07147293191329     -0.72851924420563
  C           2.26059675753156      1.48712436746670      0.39509221930338
  C          -4.35133298857364      0.39659925766188      0.67701665009858
  C          -3.21147453021769      1.01851502250459     -1.41121785961397
  C           1.38664965326002      0.86351691811634     -1.88969287889952
  C          -4.56523753645684     -0.91813463337287      0.67746637265814
  C           3.76255035551361      1.33252715636842      0.18498461941311
  C           3.26307182708124     -1.13751620796488      0.16595374473656
  C           4.22228141742876     -0.07587829615213      0.48630451931606
  H          -1.04982947502496     -0.57170119282111     -1.41651961587033
  H           0.11462776708856      0.19856884755766      1.27955312439338
  H          -2.05289611989427     -0.60887734642496      1.43151669508265
  H          -0.13325358145034      2.54052911069987      0.74053483363309
  H          -0.74604930562512      2.18850605031111     -0.85102738768424
  H          -2.60714139410089      2.81320647179807      0.56603217980234
  H          -2.13686116944609      1.66993262890987      1.81621728729177
  H          -0.15122851269382     -2.22396059996832      0.97376212423083
  H          -0.83448784389073     -2.85489386828246     -0.51699479361306
  H          -3.48331251664712     -1.98692614803584     -0.86492454987260
  H          -3.15500732227454     -2.58922738968658      0.75303105379165
  H           1.67341474646951     -3.01132941463509     -0.51170473736148
  H           1.05702043167540     -2.01883668067015     -1.81869576461998
  H           1.95847516292842      2.50173846802386      0.13382272262259
  H           2.04522551345720      1.35899533629892      1.46053261871184
  H          -5.07753323970317      1.15261105962225      0.94986817977069
  H          -3.86495863226158      1.88685493329355     -1.52101378692066
  H          -2.28424583300548      1.23569758858545     -1.94005344964276
  H          -3.69496836832394      0.17839920557122     -1.91052552639291
  H           1.02525704803245      1.88330791624901     -2.01979046637404
  H           2.38919034812917      0.80822327175161     -2.31468420395012
  H           0.74715210117119      0.20406549375023     -2.47474933418530
  H          -5.48983971401481     -1.40111666403587      0.96595603434637
  H           4.03297750237654      1.54468150294261     -0.85513030400525
  H           4.33082734143421      2.02535645444770      0.80587337667797
  H           3.64430715330055     -2.14880838359680      0.25750631633806
