19
Coordinates from ORCA-job 93320 E -688.107030885877
  S           3.30002763881169     -0.60906024386067     -0.08077450818884
  N          -4.22921535634683      0.57091108002757      0.08506647615403
  C           0.55341595971218     -0.56379954825893     -0.03941011433705
  C          -0.76284043048389      0.20747699027020      0.01740205963116
  C           1.76244226238055      0.36297889313999     -0.01124722569428
  C          -1.97453468909074     -0.73689914964484     -0.01114961180049
  C           4.50701038653610      0.74132529951383     -0.03019826846916
  C          -3.24263113446022     -0.01859449062163      0.04197108150841
  H           0.61024996022216     -1.25834190809778      0.80419006736883
  H           0.58504394721793     -1.17221964138863     -0.94831122786480
  H          -0.80469354813292      0.81380621544967      0.92542388521435
  H          -0.83011580781962      0.89943227083711     -0.82554301815227
  H           1.76214232501932      0.96097955799967      0.90348980919735
  H           1.73690847203156      1.04760316744925     -0.86270632029658
  H          -1.96042132739412     -1.34456198949655     -0.91991457009138
  H          -1.93530063138806     -1.42982116620598      0.83360997682784
  H           4.41559751314360      1.31485345582942      0.89273963711181
  H           5.49612235791254      0.28687943641662     -0.06634972045627
  H           4.39121810212874      1.40336477064169     -0.88892540766264
