15
Coordinates from ORCA-job 936 E -416.945319771465
  O          -2.37755768279966      1.06192549007632     -0.38649820309023
  N           1.80489928984656     -1.20348752274349     -0.12185802587051
  N          -2.42348439470662     -1.14567464261701      0.09422383271355
  C          -0.27946476249464     -0.00457236756125     -0.07777441747063
  C           0.40584054278850      1.20214176059638      0.04014594011979
  C           0.47491292042243     -1.17419663979805     -0.16521074058854
  C           1.78856324589579      1.18490539623323      0.09040857117206
  C          -1.77648412525495      0.03295127282733     -0.13448739134305
  C           2.44181235618127     -0.04087521620305      0.01129590303123
  H          -1.95926675866169     -1.93435264647414      0.50702531829991
  H          -3.42890341287112     -1.11373935511799      0.13052291954468
  H          -0.16074343154141      2.12221138423004      0.08657315258699
  H          -0.00629388048431     -2.13675569292396     -0.30598676183509
  H           2.35663704916442      2.10042984032134      0.18764210534983
  H           3.52475604451544     -0.09060906084570      0.05167679738002
