51
Coordinates from ORCA-job 94144 E -743.162800815711
  C           0.23277537908598      0.45764506363379      0.30178497579819
  C          -0.64098821084863     -0.70547576579234     -0.23146760390283
  C          -2.04593036014328     -0.56806175464938      0.34113044184076
  C           1.70629720271472      0.37532001921353     -0.19807019575304
  C          -2.72765059034699      0.77204950061411     -0.00206800670504
  C           2.26518943405677     -1.01385974258389      0.22204837191484
  C          -0.43068894124094      1.82717372878708      0.06917375152001
  C          -1.87649152994315      1.89853874232636      0.57936064557022
  C          -0.02059725194087     -2.06230834642750      0.10617132619432
  C          -3.10918747969030     -1.62044382522557      0.01063873202452
  C           1.43492635007653     -2.16555742128056     -0.33786599027482
  C          -4.10238562897488      0.56266505080691      0.65178588950893
  C           2.56359159041091      1.45173947890521      0.50348928121651
  C          -4.45284052532472     -0.92177180961023      0.36347995527499
  C           3.75877716559188     -1.17086632196457     -0.06971659057349
  C           1.78065834788772      0.58470328342278     -1.72015556982719
  C          -2.92525331780265      0.97525259147246     -1.51364452307486
  C           4.06577624385773      1.31356461190756      0.24399876164122
  C           4.58085160882764     -0.07732192121952      0.61072532982561
  H           0.28350137425688      0.31642030405633      1.39116771891740
  H          -0.70573114400662     -0.62993902022075     -1.32172274508753
  H          -1.93438779173995     -0.56839633136599      1.43522748757247
  H           2.15839899262240     -1.05244150717833      1.31570972608054
  H           0.15172239054810      2.60433852825221      0.56554115795308
  H          -0.41375467646907      2.07067790882460     -0.99506128556659
  H          -2.30497036927008      2.87691931609982      0.34034892175520
  H          -1.87858848113428      1.81192886042904      1.67155630276536
  H          -0.07338872654255     -2.21058487163794      1.19192763486301
  H          -0.61290208895823     -2.86222431098122     -0.34466421274934
  H          -3.07225915865941     -1.88527213199546     -1.04882668567195
  H          -2.96655820765776     -2.54427025591589      0.57116550589098
  H           1.49538825113795     -2.17435385541847     -1.43072592324545
  H           1.86092804664153     -3.11569615172862     -0.00195841493309
  H          -4.01873413325703      0.72844668295588      1.72919898151471
  H          -4.85955953817034      1.25369659391173      0.27612581198928
  H           2.23864982714862      2.44689114546402      0.19444959432474
  H           2.38284122174405      1.38534052064966      1.58294292614480
  H          -5.16239776235543     -1.00502221748821     -0.46056807669804
  H          -4.92729891625595     -1.38553761662114      1.22880659550044
  H           4.08628716259682     -2.15565911542596      0.27633432279262
  H           3.93623441197728     -1.15481685401553     -1.14965254332069
  H           1.49303993669552      1.60376556257313     -1.98191894767214
  H           2.78877592165274      0.43002423299381     -2.10089541531041
  H           1.12409013035759     -0.09230712105640     -2.26421789906601
  H          -3.42745532053176      1.92937826007721     -1.69038112073159
  H          -1.98575905384814      0.99106363284110     -2.06404369979278
  H          -3.54619264565878      0.19280439608995     -1.95073308281800
  H           4.27942693147947      1.51522005042318     -0.80985923147943
  H           4.60340479350616      2.07650524217471      0.81349020967973
  H           4.51350333649790     -0.20877544782117      1.69688162985605
  H           5.63816079939893     -0.17334759128154      0.34981477432377
