86
Coordinates from ORCA-job 94225 E -1400.933847440174
  O          -6.15132661642371      0.53088736875364     -0.27069842274148
  O          -6.21256345610573      2.37235014538602     -1.57368840222123
  C          -0.50457437167923      0.06316680617444      0.55494140572968
  C          -2.02593774060159     -0.03941280189305      0.91058117729760
  C           0.26597656070550     -1.28006523078648      0.40333316257861
  C           2.39144627846011      0.30689675114799      0.23390804408593
  C          -2.67849238483679     -0.92600244189000     -0.19109862349273
  C           3.88999332880618     -0.04803508864934      0.55516522944516
  C           1.65023691823721     -0.96583985528313     -0.18576146283477
  C           0.24577243766657      1.09054486153576      1.42438357677711
  C          -0.53045537813838     -2.18545485928573     -0.55905261635387
  C           4.57999998056199     -1.08944802758404     -0.40032667900112
  C           1.75846847975666      0.86924148210832      1.51752125683192
  C          -4.23751688870466     -0.95858260127420     -0.24339983343553
  C          -2.01544257287908     -2.30226306176175     -0.22679781468133
  C          -2.62887911000929      1.37740605862202      0.79931001940697
  C           4.81285066050664      1.15259809623311      0.90736255295604
  C          -4.70013138169296      0.50821929714073     -0.30584697709503
  C           3.63641435268083     -1.50224270397576     -1.55011495858690
  C          -2.25930270119409     -0.56069427562791      2.34402121793470
  C           0.47093492715983     -2.05794170841026      1.72540873502038
  C          -4.15482282558906      1.38494158805755      0.80508048216871
  C           2.24788183572678     -1.76892520830264     -1.06356484205342
  C           5.89184147776004     -0.55999143630339     -1.01074647701736
  C           5.71569546947803      1.81408266115708     -0.18244350362549
  C           2.23076651727586      1.36136740150329     -0.87787342197398
  C           5.80979927325644      0.90205406442326     -1.41580493427286
  C           4.91176012326008     -2.34901450134859      0.41367873110935
  C          -4.68401099871659     -1.63643488044486     -1.55121957235507
  C          -4.89404249191939     -1.71240669905637      0.92226734230565
  C           5.22282121354793      3.20402892381224     -0.60241219236051
  C           7.11824801311431      2.00167732022479      0.42269357863611
  C          -6.77780106082894      1.51421469226943     -0.94331938060278
  C          -8.27130472200476      1.38983797738239     -0.79903771291361
  H          -0.50995627111829      0.46780712746766     -0.46245643940744
  H          -2.39561735062766     -0.43602384949226     -1.13292047466359
  H           3.78776924128202     -0.57582334020837      1.50525181323328
  H           0.05216416484259      2.08587840250879      1.02242058799884
  H          -0.15426014591310      1.10336841463907      2.43933084520895
  H          -0.43561260549662     -1.78363932725807     -1.57150164469665
  H          -0.08759149403493     -3.18357933214804     -0.57571035497523
  H           1.98561306233227      0.18968783324337      2.33953646317208
  H           2.23243342435936      1.81693574652051      1.77683675791564
  H          -2.15725875888372     -2.82485601666357      0.72100198399593
  H          -2.48232125298233     -2.93043605686162     -0.98568737097425
  H          -2.26272211706695      2.00800130613222      1.61110738697519
  H          -2.28119740859662      1.83618752859083     -0.13261492592418
  H           4.22806832822100      1.92982784920232      1.40041182964897
  H           5.48483904679753      0.77795467672467      1.68253415714105
  H          -4.39248327360830      0.92781448540794     -1.26545438386731
  H           3.63123745565776     -0.72500543503307     -2.32036424372755
  H           4.04652032327874     -2.39244209116221     -2.03345309614604
  H          -1.44970687714068     -0.26193649018529      3.00766214243199
  H          -3.17564638071765     -0.15669797638943      2.76904302394466
  H          -2.33556968149889     -1.64293805318884      2.39577540288883
  H           0.85432577313155     -1.43680929239846      2.53134463874135
  H          -0.45466837567521     -2.50929585832748      2.07474162605881
  H           1.18904621392360     -2.86081849613544      1.55476034930563
  H          -4.54895861728062      1.04358043374111      1.76428488115051
  H          -4.51882661136848      2.40315796059711      0.65821516366249
  H           1.75894322040592     -2.66475886115408     -1.42118837730328
  H           6.70640101962457     -0.68907607851393     -0.29258933347767
  H           6.15010922196885     -1.18546151823313     -1.87011844890098
  H           2.60203748033647      2.32751701294378     -0.54138217091660
  H           2.75975013866671      1.08806681233299     -1.78736999757035
  H           1.18217423910730      1.48970856583606     -1.14159215828512
  H           6.67945316831005      1.18812858639769     -2.01423011362636
  H           4.93717195765392      1.05733353736499     -2.05545797951826
  H           5.53533064382305     -2.09859694485787      1.27543646501291
  H           4.00300391662713     -2.82811732197073      0.78175775184012
  H           5.45848437817502     -3.07360851135526     -0.19586806131925
  H          -4.49814543442179     -2.70984681986896     -1.53267832254108
  H          -5.75476045847490     -1.49408782950616     -1.69924667219406
  H          -4.16196747177905     -1.21476845761092     -2.41336493372266
  H          -4.77137681944759     -1.21142643830527      1.87846701019113
  H          -5.96343065011253     -1.81619118870350      0.74034610230119
  H          -4.47336993779568     -2.71439638256220      1.01333099234218
  H           5.12635699678503      3.86405361697639      0.26343762091938
  H           5.93574276128643      3.66393879191336     -1.29164722324358
  H           4.26137345779004      3.16547454329416     -1.10941486762446
  H           7.06838125963556      2.61352223970705      1.32675963245124
  H           7.57076686643644      1.04673583114859      0.69603995616052
  H           7.78386950005167      2.50185346123188     -0.28470221094907
  H          -8.54719107689773      1.45180857466977      0.25473324607132
  H          -8.75877297346696      2.18366495463462     -1.35806601716203
  H          -8.60133436274100      0.41680656081263     -1.16576369269197
