39
Coordinates from ORCA-job 94253 E -884.440571572227
  O           1.72049295878566     -1.29559169432271      0.05227318850704
  O          -0.69969573390903     -2.63840923073310     -0.85520467089185
  O          -3.33627255815615      1.89573185249328     -0.73027158634041
  O           3.94006174362902     -1.53934721081776     -0.19052753951811
  C          -0.56319275724550     -0.31975672607011     -0.17532671841658
  C          -1.36437825832918      0.94654503748498      0.26885580898165
  C           0.83378169088734     -0.19601302888585      0.38611577393948
  C           1.55211095100234      1.02503547884289     -0.15562760760148
  C          -0.61437143779251      2.22007541083897     -0.18643789484695
  C           0.84386851219443      2.28911562575440      0.29670281527173
  C          -1.25215304776806     -1.67991122060988      0.05996222320764
  C           2.99598674226259      0.69851988250163      0.21277976604695
  C          -2.74434692506333      0.89039733848885     -0.39225276810835
  C          -1.65725531628563      1.03928105870323      1.78412876805508
  C           3.00825970936435     -0.81978947025122      0.00321046233912
  C          -2.69870428206192     -1.58310769974076     -0.33397656828929
  C          -1.12247076065438     -2.24632131636210      1.48098450772131
  C          -3.35802834027620     -0.44290035855991     -0.54028377123989
  C           4.09076027529623      1.40991145852981     -0.56427309887070
  H           0.25349865478152     -2.68233926103271     -0.69653799783105
  H          -0.48224412727962     -0.25605854099943     -1.26508689319803
  H           0.79892741456206     -0.15313006835091      1.47848368599922
  H           1.48279933633385      0.97442360156641     -1.25024447461404
  H          -0.62149198956438      2.25388374885904     -1.27935880796547
  H          -1.17471362629839      3.09295736517414      0.14499407778971
  H           0.89366424971246      2.38314490385473      1.38570403178818
  H           1.32361426895023      3.17805852126473     -0.11778607721715
  H           3.14233245875878      0.85953087897262      1.28942088228039
  H          -0.75510586100666      0.96343264221786      2.38931791803061
  H          -2.11955790651241      2.00495657408368      1.99059796617980
  H          -2.35027830944516      0.26850743518299      2.11462753789583
  H          -3.19246126447845     -2.53856241531729     -0.47665921103660
  H          -1.55792168104808     -1.59795461354633      2.23742525770518
  H          -1.62624471859840     -3.21204956594374      1.51958809751628
  H          -0.07138220414168     -2.40836275556713      1.72384167652494
  H          -4.39414069435718     -0.44133343026843     -0.85646935289116
  H           5.06978599949606      1.00857608985496     -0.30401952239013
  H           3.94936092704318      1.27889873377874     -1.63872822192639
  H           4.08420390721216      2.47854596893142     -0.34536466258655
