39
Coordinates from ORCA-job 94275 E -585.900863407486
  C          -0.83231089371082      0.62955243661999      0.60827082164334
  C          -1.87793768263757      1.76443281502130      0.43208748534903
  C          -1.55478239419508     -0.60185019669177      0.08047602105843
  C           0.50480750812848      0.86920564978786     -0.11320458159073
  C          -2.66617147201036      1.34040334906130     -0.81122846513321
  C          -2.82200250405379     -0.17397485856203     -0.63883334527983
  C           1.64925436849503     -0.03578731697562      0.37934126909538
  C          -1.09829154786379     -1.84791738127135      0.20321023268317
  C           1.43420979036057     -1.54078659135711      0.14311659795965
  C           0.22347064952632     -2.13424849565847      0.87923285212430
  C          -1.35556123894502      3.19323660714350      0.39533997073450
  C           2.97886826196949      0.41880109366715     -0.18851243425646
  C          -1.81591627225547     -3.04699362635063     -0.34763267513426
  C           3.16810854350740      0.34154102978031     -1.67861253017280
  C           3.94357975104554      0.87175810060372      0.60886848650510
  H          -0.60718526275427      0.51466843952518      1.67457816616974
  H          -2.56040398700493      1.68038197403371      1.28642414319568
  H           0.36445615789822      0.75031296431773     -1.19058510252108
  H           0.82750698059267      1.89889844805235      0.05313433841906
  H          -3.61941853387072      1.86333729055056     -0.90609330132585
  H          -2.08165181882245      1.56173848052215     -1.70998922105095
  H          -2.96500397974177     -0.69417652536438     -1.58682113152249
  H          -3.70308782420843     -0.39036481745965     -0.02380511387090
  H           1.70911502525887      0.10359195924794      1.46485602280125
  H           1.32994574677049     -1.74473593678339     -0.92615494534060
  H           2.33987927321248     -2.05605090437368      0.47595257806380
  H           0.21487786582778     -1.75976209869581      1.90938497505503
  H           0.35709018887325     -3.21582007347884      0.95329570816697
  H          -0.74582874194899      3.42268676034831      1.27263514818979
  H          -0.74798194881487      3.37948676881101     -0.49220052820618
  H          -2.18758177451929      3.90071249067506      0.37688833424439
  H          -2.04591756869696     -3.75800274343293      0.45307472225009
  H          -2.74948327984315     -2.79096654063064     -0.84504336516825
  H          -1.18345210441127     -3.58325149899528     -1.06390469844176
  H           3.05004586346686     -0.68253471376684     -2.04190624236320
  H           2.42722494519904      0.94879461911142     -2.20489407910444
  H           4.15920884529194      0.69108689303324     -1.96681338355978
  H           4.89893116338730      1.20042700738154      0.21702593893798
  H           3.80938690149728      0.92900014255306      1.68268333139610
