20
Coordinates from ORCA-job 95259 E -572.610881963187
  O           0.66405508006855      1.80912239301228      0.38351852119398
  O          -2.14646997692793      1.54345526684404     -0.11371971596454
  O           1.04438468060303     -0.96696497953358      1.17929988592186
  O          -3.35343086447229     -0.91600906051430      0.05828537627562
  O           3.35518984950714     -0.39679245174416      0.00588331868545
  C           0.06654047113650      0.70115454139525     -0.26818814509043
  C          -1.34689273258849      0.43270484790800      0.25085929781551
  C           0.98653521471029     -0.51852491127173     -0.15472843779406
  C          -1.97078991772103     -0.85080034439805     -0.29555644814740
  C           2.37260873984372     -0.16998815903019     -0.65265589652508
  H           0.77599666980979      1.57512563911362      1.31404620703450
  H          -3.06612895019522      1.25414781653079     -0.03563161487260
  H           1.98630115351399     -1.08879461696935      1.38588734834593
  H          -3.42318176760521     -1.18021140598572      0.98284565772898
  H          -0.01524290051397      0.98635041698478     -1.32059245079530
  H          -1.29209609519653      0.34725391360315      1.34712429976888
  H           0.61654184993106     -1.31725937518214     -0.81838136518764
  H          -1.43493317672887     -1.73157193444334      0.06650697841189
  H          -1.94800565353697     -0.84290731720447     -1.38732481943454
  H           2.43455732636244      0.28300472088515     -1.65842199737104
