81
Coordinates from ORCA-job 9548595 E -1248.280671969202
  O          -7.95558666908585      0.62375555433483      1.00054085285382
  C           0.49232978541571     -0.93654682263619     -0.47261300889301
  C          -0.16684354238655      0.44641047533925     -0.70426118365170
  C          -2.31665361477129     -0.25874117781109      0.42746936419026
  C          -3.85434482753120     -0.44208383848303      0.26469368446070
  C           1.99117839941290     -0.52751914290499     -0.47218886217548
  C          -1.66336801356065      0.41084644206266     -0.77048328828603
  C          -4.43631252148785      0.87838249472911     -0.30827682114451
  C          -0.06508741997440     -1.46582650498451      0.85235079953595
  C          -1.59372521188856     -1.56677821471584      0.81863317910975
  C           0.64381218094478      1.07297812796092     -1.83448333914911
  C           2.07874471344886      0.54821957512542     -1.59295945259261
  C          -4.47350380644795     -0.69464654386655      1.65130887221701
  C          -5.97739353214462      0.94949942228293     -0.29779287863713
  C          -3.85988642659869      1.15188381819295     -1.69945139159688
  C           3.05908312165868     -1.62323640711729     -0.62373990824617
  C           0.18270429452530     -1.90018955419239     -1.62672587197154
  C          -2.36971205881587      1.00663489330214     -1.72845600568407
  C          -4.16903165314725     -1.62024662135306     -0.67556378078798
  C          -5.99769401095538     -0.67881225362110      1.63507224014959
  C          -6.52749521408641      0.64015648741066      1.09355049783498
  C           4.48191552953860     -1.03380384552001     -0.72563436630422
  C          -6.49402447652732      2.30628230999854     -0.78387766058632
  C           2.99492616107444     -2.69365671579336      0.47052806227495
  C           4.94584169092137     -0.26015188712219      0.50461541063186
  C           6.31216402565004      0.38675029844401      0.43258685892121
  C           6.62773940646677      1.35785077866382      1.55883158721106
  C           7.15967773524073      0.14368484895085     -0.57043483453250
  C           5.93860872599165      2.71091303986200      1.32406801638814
  C           6.27981848517423      0.80457497466441      2.94658574530099
  C           8.52680868613287      0.71612755601359     -0.79629893440707
  H          -8.31284608872886      0.39392545224623      1.86487679461485
  H           0.07068556496429      1.01827756228665      0.20635137387341
  H          -2.17282045859782      0.43241453120542      1.27140494585825
  H           2.15982945833698     -0.03083452208717      0.48967031370142
  H          -4.07701685153528      1.68156878633338      0.34989424437913
  H           0.34157509413484     -2.44752771046406      1.09620119213272
  H           0.24663826947848     -0.78907634927854      1.65588382095144
  H          -1.94809373253262     -1.89110430708991      1.79873026171260
  H          -1.86812674088186     -2.35684969270977      0.12032831348596
  H           0.27084496224294      0.74196245469242     -2.80519929804341
  H           0.58704678866100      2.16192508166440     -1.82675769348723
  H           2.76065827350247      1.35061973186607     -1.30987477646922
  H           2.48507572658293      0.10898752333567     -2.50606801004876
  H          -4.12071823677421     -1.64692891514736      2.05158959763718
  H          -4.11778928036436      0.08247074138923      2.33735014917002
  H          -6.37350362590335      0.17887483615581     -0.96799748663230
  H          -4.33402286898051      0.49518737624545     -2.44032576264971
  H          -4.11101779105429      2.16771336563220     -2.01156220618850
  H           2.87723465226572     -2.12287262028181     -1.58164074959325
  H           0.53207173000264     -2.90840155156880     -1.39701676051465
  H          -0.88669335543482     -1.95413389919173     -1.82692949085388
  H           0.66640043504009     -1.58862926099046     -2.55272536911210
  H          -1.85063279960532      1.47823228825707     -2.55559582792569
  H          -3.99450367181980     -2.57589594507935     -0.18102276584415
  H          -5.20945169920003     -1.61101411197164     -0.99649578580629
  H          -3.54778310645571     -1.58929081983049     -1.57069221775357
  H          -6.39069215655140     -1.49124984913216      1.01842570345495
  H          -6.38114167824501     -0.83901786053603      2.64875802601516
  H          -6.21720882037173      1.45168136480969      1.77086421444672
  H           5.16967700123715     -1.86343995924669     -0.91274530385549
  H           4.54404112999378     -0.38431937688925     -1.60100857319322
  H          -6.03952750968923      3.11972999977831     -0.20998921358821
  H          -6.26814221845459      2.47227194909557     -1.83678600281529
  H          -7.57378291265227      2.36520199264456     -0.65853515897020
  H           2.98005180091650     -2.25183509840821      1.46893439250005
  H           2.10675590637946     -3.31637318579479      0.37476366061760
  H           3.86434216139607     -3.35282490122879      0.41140609757413
  H           4.21560549360174      0.52304398048106      0.73072222525124
  H           4.92437999155645     -0.92329910089774      1.37495853093891
  H           7.70285572606586      1.54124329085766      1.55601609925282
  H           6.84250566857009     -0.54490534402612     -1.34598318779630
  H           6.19512276222283      3.41763851255540      2.11696352054416
  H           6.24238863466921      3.14222034324326      0.36898065512898
  H           4.85120288065332      2.60667236176989      1.31443751794046
  H           6.74994374824984     -0.16636571508429      3.11549042088865
  H           6.63073918383239      1.48880093717767      3.72199562400517
  H           5.20274686175880      0.68550988442391      3.07811786312135
  H           8.84949070734156      1.39920267585588     -0.01275168124793
  H           9.27240116314633     -0.08144669617991     -0.87319811996684
  H           8.56041388484214      1.26300920189569     -1.74400669927511
