25
Coordinates from ORCA-job 95997 E -613.875014837410
  O           1.07639343495206      2.64118857170693      0.00228150429480
  O           2.16789846569041     -1.98407817906578     -0.00154960702410
  O          -3.35959930800994      0.16829925182476     -0.00109349902056
  C          -1.05716905408848     -0.35552389727833     -0.00084502181391
  C           0.62404997304447      1.35965814371871      0.00102451580740
  C           1.27329394145608     -0.96029462010794     -0.00082922345912
  C          -0.07475101010970     -1.33338942114999     -0.00144233866675
  C          -0.71358498875239      1.00224382705010      0.00040943571032
  C           1.62589365531261      0.37997294532543      0.00039188788612
  C          -2.51376520693554     -0.70327241512501     -0.00148154846820
  C          -2.91271888160235     -2.16261895544995     -0.00255917401049
  C           0.11546633907182      3.68656876579406      0.00257513078413
  C           3.55030695536244     -1.66820124766961     -0.00045516006929
  H          -0.31159616987170     -2.38666547502026     -0.00237222028644
  H          -1.51151575752584      1.72715442800682      0.00085324644755
  H           2.65423084959010      0.70724303875134      0.00084433702846
  H          -2.51569355056150     -2.67359680333955      0.87717741023716
  H          -3.99776142174582     -2.22895346684093     -0.00304192246200
  H          -2.51494270722646     -2.67262856841239     -0.88250895176046
  H          -0.51667254943652      3.64364144204535      0.89369961166195
  H           0.68321726414602      4.61385555036391      0.00338250357766
  H          -0.51594203923721      3.64477673173742     -0.88911762899095
  H           3.82767471718732     -1.09997976589146      0.89226736406572
  H           4.07536470830664     -2.62030211252034     -0.00073365478827
  H           3.82882934098350     -1.09888476845328     -0.89212099668073
