32
Coordinates from ORCA-job 96191 E -917.736085972595
  O           2.12685064460398      2.18860790395380     -0.28121457600446
  O           3.84914923797835     -2.17985140837785     -0.03066982630042
  O          -0.54156436689499      2.47926305849990      0.10109044690731
  O          -1.08817873638347     -2.85527777735961      0.34422603318349
  C           0.56103924360744      0.37012415880133      0.02420329978461
  C           0.38464959641101     -1.02277342154323      0.11696162544427
  C          -1.97180391452004      0.62449105906151      0.00041438597784
  C           1.88059886471675      0.86047507994758     -0.10557748455357
  C          -2.13934808299587     -0.76011991752786      0.09157915351455
  C          -0.62035833263246      1.26408383091673      0.04243360749775
  C          -0.96378210895618     -1.65032708901734      0.20505308805650
  C           2.98304654425397      0.00138887547977     -0.13833027399140
  C           1.47225274929752     -1.88048128131150      0.11074631226315
  C           2.75462396342229     -1.37314426638541     -0.01437002399472
  C          -3.09348738884008      1.44490902932016     -0.10537856876777
  C          -3.41969209064756     -1.31261267582967      0.07960390409053
  C           4.38334476103824      0.50887496215822     -0.31018512116616
  C          -4.36325790783994      0.89062335224239     -0.12814241112749
  C          -4.52805049015464     -0.49053345552787     -0.03372087802611
  C           2.25393644316638      2.95927875919339      0.91532039188744
  H           3.57308080650902     -3.10057723411731      0.04954061216500
  H           1.29034997762307     -2.94496823714963      0.19330115217342
  H          -2.94452340701043      2.51369600628749     -0.16703566206878
  H          -3.51848312166030     -2.38636895066950      0.15868403471987
  H           4.96570731072017      0.35999641992529      0.60274455472148
  H           4.89472010239010     -0.04513993020602     -1.09880461244178
  H           4.38202757181698      1.56545326046270     -0.56061366955288
  H          -5.22979063242150      1.53332179787563     -0.21720981879954
  H          -5.52146486244363     -0.92005512479277     -0.04814590234252
  H           1.33395148863924      2.92547226870570      1.49780477337186
  H           3.09640539740316      2.59898368520954      1.51376459588535
  H           2.44051973980343      3.98251726177440      0.59775885749318
