37
Coordinates from ORCA-job 96943 E -826.018809303789
  O          -3.00675147043504     -0.59352614455505     -0.50130949840388
  N           1.38016943847384      1.52590986296623     -0.12878290553919
  C          -3.75489955473286      0.58031885713094     -0.08179406547383
  C           0.43799191096235      0.51653487903061     -0.16871319716710
  C          -0.94651539377217      0.60665571292659     -0.32133449065159
  C           1.09596104080251     -0.72272958720145     -0.04391821367151
  C          -1.65660125989481     -0.59947280661043     -0.31858659478783
  C           2.50395676321246     -0.43476949587890      0.09501180085798
  C          -1.03402521628643     -1.85517088194246     -0.21397272440997
  C          -3.01646784965515      1.83438722920028     -0.47789631120280
  C           2.63737740965438      0.97255065896640      0.04672812641259
  C          -1.68482497579872      1.83346116721732     -0.54824915724031
  C           0.34664282591880     -1.89756602800502     -0.07695837205608
  C          -3.93327835029969      0.51816692284408      1.43781479339888
  C          -5.09105701129734      0.46606368855942     -0.80121217580710
  C           3.64330659350579     -1.22054445652852      0.25478356391522
  C          -1.86730386388846     -3.10449342350943     -0.25487993511272
  C           3.87237546793702      1.59793156743698      0.15951950411691
  C           4.88004436163299     -0.60233263795730      0.36765940450299
  C           4.99124579814305      0.79207453270369      0.32176573710920
  H           1.17699459705270      2.50736355245570     -0.08754728936849
  H          -3.59976709606822      2.72548558357140     -0.67193015752614
  H          -1.14603094477579      2.73556929709336     -0.81413414328973
  H           0.83881022837382     -2.85859914144089      0.01265338535859
  H          -2.96217449708139      0.52763654112991      1.93364210164013
  H          -4.50417796645110      1.38026849234581      1.78706864034690
  H          -4.46496243434302     -0.39316288897787      1.71726322130755
  H          -5.57977654646174     -0.47221013512127     -0.53743989991355
  H          -5.74417228779961      1.29187973223109     -0.51483220462427
  H          -4.94453102322460      0.49279102357741     -1.88104696584815
  H           3.56483634971450     -2.29986134470164      0.29250628823890
  H          -2.62315907544946     -3.10421883743319      0.53365195424970
  H          -2.40454864631958     -3.19458883349948     -1.20191166225066
  H          -1.24008261989206     -3.98728019908366     -0.13143683165874
  H           3.96304215384239      2.67638260674238      0.12147571068283
  H           5.77152167185704     -1.20286767150485      0.49288117303645
  H           5.96680647284361      1.25196060582183      0.41302039082885
