44
Coordinates from ORCA-job 97142 E -1261.260987960815
  O          -0.38714485765077     -0.24828384158271     -0.09599424278632
  O          -4.82326623855118      1.64166625096111      0.28824988084124
  O           0.14841675261079      3.17246690969043      0.92562576731313
  O          -4.25398504496080     -2.75516942475725     -1.14780203065631
  O          -2.40882581198221      3.10701028819694      0.86263507092788
  O           4.09015996026223     -2.06254238651731     -0.35641716338680
  O           5.87815831610349      0.07757997331536      0.21307544682153
  C          -2.53821281354645      0.80586780700861      0.17184973784109
  C          -1.73557745175188     -0.29442757968905     -0.16366656304330
  C           0.29557944387808      0.88165183339675      0.26351365407557
  C           1.74216821550965      0.68678287660443      0.26055925893995
  C          -1.87321800107550      2.03499976167168      0.55036041487532
  C          -0.41272997371278      1.99971043703887      0.56737749871974
  C          -3.94666279840513      0.63190866391924      0.04444247128059
  C          -2.25431525560303     -1.51128183086393     -0.60354936066102
  C          -3.62704859462524     -1.63545519275720     -0.72584140493772
  C          -4.46791670967461     -0.56047186511938     -0.39754724317145
  C           2.27009038244762     -0.57854309935746     -0.03169722915200
  C           2.63501672814022      1.72776427376211      0.55195204618742
  C           3.63509562495615     -0.80357348420987     -0.04761942058520
  C           4.52012134101828      0.25277193747356      0.21078981207120
  C           4.00125474941895      1.50350642559831      0.52066860856989
  C          -5.04874091137740      1.96701481575174      1.66341671478524
  C          -3.46349379204233     -3.88429296271275     -1.49353995377819
  C           4.71301682834476     -2.75704424614241      0.72839874193752
  C           6.45923571938150     -0.22772494168275     -1.05963101767466
  H          -0.63207566927200      3.75046304418499      1.08104890234880
  H          -1.56684351154385     -2.30570681778734     -0.84540296501130
  H          -5.53809537638544     -0.66954332287139     -0.49812420073748
  H           1.62021576520465     -1.41297101023514     -0.24615038280940
  H           2.26087141087050      2.70935483801757      0.78870964050364
  H           4.69613440970931      2.30576767663100      0.73148249498062
  H          -4.13581539770448      2.32441809171783      2.13722619059084
  H          -5.78902335313470      2.76365332980653      1.66387965274668
  H          -5.44500937923564      1.09507415607646      2.19274118488561
  H          -2.88243560416843     -4.23604071128347     -0.63680752544762
  H          -4.16471385169106     -4.65647947522348     -1.79887840735272
  H          -2.78907740859599     -3.65432051406313     -2.32265237109118
  H           5.58376494256759     -2.21377261726755      1.09930607917425
  H           3.99923144558129     -2.90335154153532      1.54423752797416
  H           5.01960997891201     -3.72448269865330      0.33568564446693
  H           6.28354595837601      0.59311060428270     -1.76050629260771
  H           7.52795722416690     -0.33551483528886     -0.88667650315966
  H           6.05209360923088     -1.15249059550515     -1.47042216480878
