22
Coordinates from ORCA-job 97165 E -685.958260115634
  O           0.12468455415330     -1.03311199320255     -0.32588061037943
  O           0.62322167996033      2.49999177617597     -0.39040759646428
  O           2.98943615110274      0.66523394567844      0.81794584776859
  O          -1.80911084271977      0.23286519506702      1.48379267667626
  O          -4.06104032370983     -0.36448273967606     -0.08487278557923
  O           2.08057505135436     -1.98748412439343      0.25169623882878
  C          -0.37247751638274      0.32201730694334     -0.49312515713601
  C           0.68559522136299      1.20660561928656      0.17120252908530
  C           1.95358041631152      0.41384706470644     -0.09323602747517
  C          -1.78016850969597      0.44129364649303      0.06976319139145
  C           1.43977381947856     -1.01703190076436     -0.02971475130912
  C          -2.73886221277690     -0.56880627476404     -0.54679066288185
  H           1.26021472448311      3.06448675991683      0.06204448941335
  H           3.45216129271111     -0.17162906077257      0.97072384538721
  H          -1.80975583400726      1.08235509835661      1.93405349109597
  H          -4.03556576397630     -0.44886377468420      0.87629346777817
  H          -0.40086656473875      0.54577898374567     -1.56392433521926
  H           0.52341276043326      1.22990825632227      1.25461656322871
  H           2.27625886246353      0.60699190137077     -1.12825699011137
  H          -2.13407570023934      1.44875180781893     -0.17230842318313
  H          -2.38716527698971     -1.58036268340327     -0.32015930823462
  H          -2.75976598857822     -0.44656781022139     -1.63092669268032
