41
Coordinates from ORCA-job 97214 E -1221.969821293055
  O           0.11515597082026      0.44434489711940     -0.17611026338073
  O          -5.34918191056792     -0.03745721477187      0.12235354249242
  O          -4.09408475183096      2.50938615333978     -0.15595296582064
  O          -3.85716799556529     -2.22957438963054      0.27146221060637
  O          -1.33116168867380     -3.33506984991629      0.25914289620905
  O           6.31848884949269      1.03979465050098     -0.39009985372726
  O           4.40309735586792      2.79073782785612      0.15189827566622
  C          -1.80984263263127     -0.99980345919799      0.06520079293883
  C          -1.23592609390445      0.26984398488587     -0.08537909956515
  C           0.95650674162776     -0.61850100410242     -0.09990681445531
  C          -3.21686373702176     -1.05514010691779      0.13440096039432
  C          -0.93042523174299     -2.18611126002776      0.13747982644696
  C           2.36547028043779     -0.22199294897771     -0.19678497476578
  C          -1.98132354684619      1.43894766192108     -0.14543935478667
  C          -3.97858172940205      0.11169206606877      0.05262402303154
  C           0.48801717567061     -1.87216276424650      0.05961274079484
  C          -3.36042298337912      1.35917404736100     -0.06475223454033
  C           2.73550064892229      1.11262771810934      0.01126245025184
  C           3.35456292245915     -1.15966043609047     -0.49023297219104
  C           4.06043699278669      1.49260837776707     -0.05992210043894
  C           4.68951973366631     -0.78316729721545     -0.56412059016241
  C           5.04964998057962      0.53913709196518     -0.34715894125603
  C          -6.03771761207689      0.22793293932855     -1.11070860062939
  C          -4.83340532383726      2.86099943229782      1.02031132840998
  C           7.38638758535353      0.14629520253473     -0.66942143996782
  H          -4.80121381269482     -2.01617017218421      0.34881463551905
  H           5.36349762457733      2.86319603436747      0.06392645901413
  H          -1.49498523043151      2.39746629136319     -0.24952079835166
  H           1.17068985136247     -2.70254543602318      0.15016780187446
  H           1.99342448374983      1.86356483978066      0.23693155759801
  H           3.09036812574810     -2.18870582178561     -0.68453874830103
  H           5.43840662898536     -1.52493725493682     -0.79935495858615
  H          -7.08973481258345      0.02290675431338     -0.92336229010120
  H          -5.90606088731964      1.26895576727085     -1.40699107710527
  H          -5.66696943062939     -0.42817648106650     -1.90211057854840
  H          -5.55771277720605      2.08830027840435      1.28067168118254
  H          -4.15063731067021      3.02186402786258      1.85877982210766
  H          -5.34779181683623      3.79032997642125      0.78599575757559
  H           8.29403766012702      0.74402529774654     -0.64791379260599
  H           7.44749125768186     -0.63960405899004      0.08792042281414
  H           7.26989544593469     -0.30658936250484     -1.65749273564074
