24
Coordinates from ORCA-job 9727 E -480.678453864944
  O           4.02114818559931     -0.04880993291992      0.68798195731534
  N          -3.74755214466620      0.02504250695468     -0.14694179963609
  C          -1.41707940323717      0.08144459412885     -0.94444154947814
  C          -2.35247211628801      0.01757713726705      0.26391162695666
  C           0.03425934786543      0.03484587224366     -0.54809208506900
  C           0.73755091292667      1.19913275153580     -0.23632927291971
  C           0.70836478862033     -1.17840440177170     -0.43416198230806
  C           2.06131020546065      1.16284773296744      0.17433900333316
  C           2.03463472129628     -1.23441469248974     -0.02434520501883
  C           2.71496995288477     -0.06045172608795      0.28249509853201
  C          -4.67776640596979     -0.00526345155340      0.97069458506324
  H           4.35609783200282     -0.95186724129407      0.71855281222615
  H          -3.92724706064454      0.84031426960634     -0.72203859154998
  H          -1.65811203587363     -0.74887808356496     -1.61156252286935
  H          -1.61738042832662      1.00338356598293     -1.50013670877667
  H          -2.10716107977607      0.84222107442138      0.95582822160566
  H          -2.16502183038032     -0.90975113046568      0.81443159740580
  H           0.23971255227382      2.15833593937895     -0.32049009588022
  H           0.19074571196609     -2.10011659379081     -0.67309836653476
  H           2.60120835955122      2.07036087483874      0.40960878049372
  H           2.54090824341716     -2.19079738593590      0.05193352029674
  H          -4.52052688089160      0.80213137806573      1.70465032176426
  H          -5.70145808883468      0.06210306787217      0.59984629975218
  H          -4.57767733897592     -0.95546612538960      1.50078035529589
