44
Coordinates from ORCA-job 97597 E -1241.197248390319
  O          -5.52072164948333     -1.36065504935504      0.57942707655516
  O          -6.18365953402958      0.84109611268372      0.38252901771596
  O           1.28006352672346     -3.18454876735687     -0.52043079033284
  O           4.86593786818367      1.97972521601373      0.26216236655192
  O           5.58447428694941     -0.76131363507749      0.35617556350561
  N          -0.34021084165503     -1.59735790194011     -0.56057778574847
  C          -0.77024832867373     -0.28193133620466     -0.33518925035364
  C           0.18085893264283      0.74168463821472     -0.25649969018617
  C          -2.15896476038563      0.02160510568582     -0.14646693187011
  C           1.59042127781861      0.40011467236132     -0.16054267740036
  C          -2.56555600500475      1.39262300520533     -0.16531365407295
  C           1.96266883737149     -0.95090832178352     -0.13563418335932
  C           0.97813661558419     -2.00611918886973     -0.38596561937099
  C          -0.26001056126812      2.08417626967173     -0.23182227453295
  C          -3.13960957779109     -0.97372526383605      0.14950002037594
  C          -1.58370591183630      2.40370467181682     -0.24726640194157
  C          -3.93534869073138      1.75064841958292     -0.02050437507356
  C          -4.42840276673341     -0.58066109041036      0.30909892362918
  C           2.60722640199792      1.35935629087883     -0.04147567079420
  C          -4.83157707444332      0.75762971042637      0.20194102532988
  C           3.29646786472556     -1.32375065111549      0.04487298240810
  C          -1.16497703729562     -2.57952262098592     -1.27415233051402
  C           3.92786287885794      0.99273315489290      0.12025201177131
  C           4.28032661235675     -0.37163010834877      0.19075053268496
  C          -6.60921747834975     -0.46052274183880      0.79610322630404
  C           5.83195616247804      2.06501513956910     -0.79235657494730
  C           6.12053996803374     -0.52124347235146      1.66127574073381
  H           0.47091282296053      2.87852730956894     -0.21686960653866
  H          -2.87976014163245     -2.00784278238767      0.28859034500385
  H          -1.89834572577004      3.43929508132097     -0.26082990807943
  H          -4.23200760255926      2.78966117808538     -0.05468715775202
  H           2.39572408577411      2.41768655364080     -0.06716228889149
  H           3.55241341277782     -2.37365669955274      0.06411078394846
  H          -1.57014858602344     -3.34252272120045     -0.60965690528421
  H          -1.97228106049488     -2.06768178768511     -1.78663725759584
  H          -0.52657959589626     -3.08648058083555     -1.99364065257226
  H          -7.46252774061635     -0.77099657498349      0.19353457880313
  H          -6.85864651147531     -0.43921305551371      1.86212291370268
  H           6.49837816319620      2.88255566358715     -0.52592986107622
  H           6.39730507361696      1.13766346131980     -0.88839941966926
  H           5.33494239884006      2.29266359674453     -1.73951997518965
  H           6.09316635308609      0.54112754380434      1.91075077800331
  H           5.56095375037764     -1.08869565930215      2.41012191043751
  H           7.15111614986196     -0.86936386538910      1.63662627648269
