40
Coordinates from ORCA-job 9794468 E -661.106408249726
  O           1.80068608415648      2.24456091380568      1.21788466316447
  C          -0.90566656897273      0.23418929049171     -0.46556022482146
  C          -2.31242924104381      0.00545765270361      0.05133822590767
  C          -1.56683407505007     -1.11116303528334     -0.63842014037738
  C           0.29134837752765      0.48339747478499      0.43570352870793
  C           1.54899064068333     -0.35953694117666      0.10883731128836
  C           0.84530484196142      1.91341766535428      0.18969256822477
  C          -1.00105709615925     -2.34391415383661      0.01761295359165
  C          -3.43792376759331      0.66114911212801     -0.71962474258447
  C          -2.57592903595385     -0.05365857856052      1.53844218432727
  C           1.99081523388464      0.24006935496537     -1.24155242853644
  C           1.67247233280707      1.75023433916061     -1.10728660810875
  C           0.41389700806867     -2.64716165341571     -0.51312221453584
  C           1.48264701733493     -1.86261789140715      0.20437165755675
  C          -0.20128592501115      3.01803580466820      0.13596037393547
  C           2.37740174762951     -2.50462324954632      0.95707172295220
  H           1.32760631970189      2.30889231412166      2.05584064333416
  H          -0.87021673426034      0.80908952312382     -1.38287862873587
  H          -1.89904208111251     -1.30537360441680     -1.65438471735779
  H           0.01532507522586      0.36865952237029      1.48558380053169
  H           2.29543075899563     -0.04626960341745      0.83904924434999
  H          -0.95682110822828     -2.24515135101374      1.10327317748347
  H          -1.65737742693651     -3.19406341490706     -0.18762131327140
  H          -3.60031852375710      1.68757874070665     -0.37782373998663
  H          -3.21938977116114      0.69533143865453     -1.78854312859499
  H          -4.37599800684220      0.11451996448771     -0.58687467996880
  H          -1.78992916148284     -0.56003301901048      2.09491432689596
  H          -2.67659419003964      0.95487467205549      1.95002005800431
  H          -3.51088498191930     -0.58463698493731      1.73573230435646
  H           3.04501145245085      0.04576562903040     -1.43688832439305
  H           1.42218916569284     -0.20304267174972     -2.06147439671584
  H           1.11191039134736      2.11798830987777     -1.96713175553585
  H           2.57286736029654      2.35729923505217     -1.02188588760865
  H           0.63229333953893     -3.71035380377371     -0.39800488725581
  H           0.43675534315544     -2.43490887196036     -1.58732271540438
  H          -0.75123178071011      3.07076482740612      1.08032739241272
  H           0.29224761912886      3.97765356141167     -0.02420250170227
  H          -0.92727998599945      2.86468264679211     -0.66076553845252
  H           2.37807141985342     -3.58490040797526      1.04179483854296
  H           3.14190893279228     -1.97067275676464      1.50874859837990
