19
Coordinates from ORCA-job 9815282 E -552.306357682855
  O          -0.40499702348414      2.37808109447844     -0.00027565837933
  O          -3.04529967528005      1.12060834760577      0.00068791333496
  N           0.18525018114769     -2.20922645165669      0.00006135567442
  C          -0.03350972094589      0.03163308212302      0.00002745019730
  C           0.90237156625563     -1.02712863266250      0.00009305476760
  C          -1.34945592931661     -0.57434497409292     -0.00008201980524
  C           0.46876393355154      1.34408379726754     -0.00004690854212
  C          -1.14566377940178     -1.93762290388776     -0.00001859822269
  C           2.28314218390985     -0.84809339192430      0.00018748637812
  C           1.84518395095379      1.53532310953398      0.00008214036848
  C           2.73654003160877      0.45692178312188      0.00021213797633
  C          -2.70313780480342     -0.03909359787478      0.00008191439226
  H           0.08339138901075      3.20961932451754     -0.00031057494623
  H           0.59210378238798     -3.12763318209571      0.00008174194862
  H          -1.87985493972667     -2.72670169277230     -0.00000727841906
  H           2.96522874461969     -1.68754427864147      0.00025871679699
  H           2.23371722961855      2.54763983143024      0.00005429434175
  H           3.80013397995041      0.65609497958290      0.00030331993420
  H          -3.47046110005611     -0.84644224405288     -0.00031748779635
