49
Coordinates from ORCA-job 984 E -704.067429660096
  O           9.13349163979822      1.21226683766272     -0.07019423191087
  C          -1.18292838399531      0.36002063084982     -0.01210505216769
  C           0.06965921968561     -0.51217521721683      0.01473988217203
  C          -2.48298724333123     -0.43954603490128      0.01890060354752
  C           1.36957876614469      0.28758107501189     -0.01670260801181
  C          -3.73558635430314      0.43265459189485     -0.00756890923993
  C           2.62206566536388     -0.58475529140994      0.01037091746163
  C          -5.03571890672468     -0.36682879110688      0.02307836148981
  C           3.92149061701850      0.21562894111155     -0.02120955607513
  C          -6.28829656806758      0.50549545199498     -0.00299807877022
  C           5.17369080744596     -0.65702120818558      0.00586734832924
  C          -7.58853199741449     -0.29363916072984      0.02753355815942
  C           6.46925596902131      0.14967516381212     -0.02599398342837
  C          -8.84210110433920      0.57816625832311      0.00156098636566
  C           7.71152651775713     -0.72872953762690      0.00131289789848
  C         -10.13605249727671     -0.23102496288020      0.03246538999012
  C           9.01873961850036      0.01450250005361     -0.02822080944358
  H          -1.16185928536214      1.04912528576696      0.83992928416531
  H          -1.16644992205632      0.98869740349559     -0.90974858204591
  H           0.05338391044098     -1.14060986200916      0.91261201311242
  H           0.04850767227160     -1.20147156252402     -0.83719369962513
  H          -2.50411961805296     -1.12846897110616     -0.83333263693827
  H          -2.49931945304917     -1.06843804993182      0.91644668181412
  H           1.38608730159573      0.91584673749302     -0.91456637911219
  H           1.39083977534307      0.97696349383230      0.83503172250176
  H          -3.71452223695348      1.12140102732723      0.84478043553478
  H          -3.71911225098038      1.06175061162706     -0.90494166473143
  H           2.60568607795762     -1.21292453612066      0.90844563874761
  H           2.60086306660295     -1.27415016623352     -0.84150050121436
  H          -5.05689494162916     -1.05536702562487     -0.82945023426721
  H          -5.05208870972335     -0.99612597797611      0.92032727576516
  H           3.93881075880942      0.84365013517039     -0.91897207545155
  H           3.94363561702166      0.90485646569727      0.83035918028662
  H          -6.26701347374799      1.19395151017159      0.84961078094001
  H          -6.27179456007289      1.13486373650596     -0.90020947660150
  H           5.15648289201128     -1.28530572059288      0.90405532199962
  H           5.15159613178482     -1.34660988939363     -0.84604292428750
  H          -7.61053874176010     -0.98230500046846     -0.82511396428896
  H          -7.60574417397762     -0.92326493156204      0.92476537133866
  H           6.49464290395158      0.77830831502859     -0.92004757558590
  H           6.49948620982354      0.83931546278722      0.82173195132250
  H          -8.81930272928380      1.26562474793640      0.85383717234515
  H          -8.82415257586021      1.20657314323742     -0.89525169482111
  H           7.72981963884579     -1.37016544853994      0.89296752579365
  H           7.72505486652011     -1.43090279440508     -0.84342083211201
  H         -10.19420713286405     -0.84431444435848      0.93535311916281
  H         -11.01479624720670      0.41673475289061      0.01312936425399
  H         -10.19917963254745     -0.90367460233527     -0.82676072044721
  H           9.92173709686431     -0.63438309244267     -0.00818459392025
