39
Coordinates from ORCA-job 9859094 E -585.874172806910
  C          -1.14195091301271      0.87019636459201     -0.21279971008214
  C          -0.62139531446620     -0.46201847487942      0.43929546017124
  C           1.79929577472801      0.36038781522144      0.35746122153880
  C           0.82129781636659     -0.77883167550155      0.01975582154316
  C          -0.11430780571013      1.98201689661936      0.12338027596193
  C           1.31723871492471      1.65562855126236     -0.29253232638312
  C          -1.30286322456221      0.74559390442260     -1.72856967016774
  C          -1.55342361696851     -1.64611959525037      0.24982204606691
  C          -2.43606462248934      1.26889583376640      0.45253105092828
  C           3.22626915189810     -0.02847530809543      0.03291782481339
  C          -2.51988619129236     -1.91136620006704      1.37030039739064
  C           3.83727407837015     -1.06442119281889      0.93757499153041
  C          -1.51534107060598     -2.43440386926181     -0.82209109386982
  C          -3.61130825287636      1.49649050078557     -0.11943679298859
  C           3.91941325423657      0.49458642567354     -0.97599045432072
  H          -0.59093738820380     -0.25823024249016      1.51675591506381
  H           1.75361687934401      0.50502661738849      1.44665154886347
  H           1.12270161307244     -1.70024015980033      0.51927952271247
  H           0.87967457491760     -0.97916239099724     -1.05192678885374
  H          -0.44312637463633      2.91132643717139     -0.34825704783815
  H          -0.13672439126853      2.15915301166197      1.20411671992602
  H           1.97668269044736      2.48060358925806     -0.01244977902525
  H           1.37502755884233      1.56884750944095     -1.38002557549333
  H          -2.06399727197463      0.01155938224579     -1.98705409392272
  H          -1.59268657146313      1.70712359185405     -2.15585450769149
  H          -0.37424973653910      0.44013441462016     -2.20744453144623
  H          -2.35553253726409      1.39684150046489      1.53049840798074
  H          -1.97988915225217     -2.09198194457006      2.30551498457212
  H          -3.17061783887614     -1.05130158625969      1.53938842744562
  H          -3.14523999653759     -2.77979880797182      1.16212129994086
  H           3.28144492843341     -2.00498634528545      0.90553688440672
  H           4.87037237361033     -1.27453016861545      0.66176825149977
  H           3.82121706927494     -0.72527727480372      1.97806352015159
  H          -2.19277612794250     -3.27361388518191     -0.92261951628732
  H          -0.81719920270715     -2.27971704368387     -1.63352757319832
  H          -4.46735133871234      1.79885030838321      0.47065054127641
  H          -3.77200607873179      1.38925625416107     -1.18404279780226
  H           4.93636938779248      0.17966661835260     -1.17620287732883
  H           3.51039415283408      1.24843363818830     -1.63425697708455
