38
Coordinates from ORCA-job 98608 E -1033.400510814316
  O           0.64410402866221     -3.03543662923623     -0.33600156623983
  O          -1.46287876006194     -1.06969877450244     -0.33103258170408
  O          -0.68302488515105      1.52379916664471      0.17493886877034
  O           3.92951623360031      0.20613928243781      0.42561722134978
  O          -1.33655180581461      3.62444240953019      0.44892260486956
  C           2.20793980145988     -1.43133733187808      0.01036043978401
  C           0.83878117861138     -1.70412966553779     -0.14799759589878
  C           1.63880019665065      0.88326360657795      0.29490260498681
  C          -0.16684762703931     -0.74722466083982     -0.10276982413350
  C           0.27433401946393      0.55619246531934      0.12784653434595
  C           2.61406549953658     -0.12046585090071      0.23020070681012
  C           2.86505194784400     -2.70970491532000     -0.08398036434362
  C           1.95861480047576      2.26228267529808      0.52115991173961
  C           1.88791368198253     -3.61492521369913     -0.29002334788021
  C          -2.35263783782765     -0.95174323479690      0.82004853576270
  C           0.99652307309642      3.20288175666290      0.57184173588648
  C          -0.40480503617499      2.86542744881277      0.40458384352908
  C          -3.74053907308562     -1.25233661014675      0.37772628286490
  C          -4.67740319498224     -0.34745636158603      0.08095486075528
  C           4.73923077799926      0.16713222940278     -0.75221268634892
  C          -6.04931259302349     -0.78217049358308     -0.35069426057961
  C          -4.47760829545420      1.13981165371238      0.12887583964805
  H           3.91713011751769     -2.91653532686725      0.00641024674128
  H           2.99889740250182      2.52459449913992      0.66014428996127
  H           1.90034164967189     -4.68297959215127     -0.41886528454738
  H          -2.01709865213080     -1.67441634488388      1.57015469597306
  H          -2.26260343556970      0.04952343909697      1.23510843915519
  H           1.21150665820235      4.24679122251168      0.74589625350865
  H          -3.98527110536782     -2.30472553546742      0.27469750718723
  H           5.75173293830130      0.41106199453617     -0.43796550311577
  H           4.72619472312659     -0.82371643591141     -1.21178876814417
  H           4.39106452943313      0.90419020251353     -1.48164507111082
  H          -6.81276645582281     -0.37117075724146      0.31733852618034
  H          -6.27507383164546     -0.40329100074040     -1.35220194674660
  H          -6.14855993076701     -1.86742086866497     -0.36165634034853
  H          -5.15444068102628      1.59178507438670      0.86076495322827
  H          -3.46165219892059      1.44456288398969      0.36403688345667
  H          -4.73512685827210      1.57704959338144     -0.84026164535279
