27
Coordinates from ORCA-job 98912 E -687.040903755796
  N          -1.38864876162785     -1.78645791749158      0.00046936585564
  N           0.59693347859411      1.14068494126096      0.00031653463057
  C          -0.15527466347629     -1.16874202576113      0.00037095976963
  C          -0.36720789680938      0.25301789817821      0.00034330406690
  C          -1.80004352525813      0.45503236749948      0.00031189055107
  C          -2.38969150664778     -0.82641379925678      0.00033166440515
  C           1.11685988219730     -1.66889587425546      0.00034617637618
  C           2.17551411119119     -0.73489934617434      0.00030058947907
  C           1.86785342390378      0.66693270233233      0.00029584983608
  C          -2.60159805506789      1.59160382488716      0.00024311591330
  C          -3.76932552966482     -0.98965702580408      0.00026173352651
  C           3.53438541139321     -1.13247863491256      0.00027041519591
  C          -3.97945549418967      1.43582248905201      0.00018742116840
  C           2.93395757000625      1.59847473918788      0.00025407531589
  C          -4.55131638571334      0.15784565247107      0.00018342709229
  C           4.53962290699816     -0.20288226910226      0.00023666172905
  C           4.23623094695081      1.17682117201552      0.00022944834306
  H          -1.54170599370000     -2.77837179018487     -0.00001088176613
  H           1.32670679342991     -2.73198772414161      0.00036474546038
  H          -2.14492617228360      2.57238461509795      0.00023121755940
  H          -4.22195834352247     -1.97309908712830      0.00027047092383
  H           3.76597650085556     -2.19123964733747      0.00027432222546
  H          -4.62196623126947      2.30620710507110      0.00013236427619
  H           2.67626762724473      2.64924820081352      0.00024310617971
  H          -5.62941848522843      0.05968985142131      0.00012596405406
  H           5.57351503398632     -0.52368384014900      0.00021968190619
  H           5.04092435770780      1.90082742241094      0.00020037592622
