29
Coordinates from ORCA-job 99300 E -878.433111293415
  O           2.19711826513563      2.49075091137761     -0.01554717883582
  O           1.72959185475988     -3.00207330749855     -0.07843680524524
  O          -0.35291349905152      2.63012829502569     -0.38051589385873
  O          -0.83001725102514     -2.69217708858291     -0.37573701899261
  C           0.79346579107850      0.55955694085576     -0.12869393342896
  C           0.66008721415837     -0.85611266136131     -0.14145586636108
  C          -1.74457615674107      0.77301098296171     -0.06362533776671
  C          -1.87106615903575     -0.61490000652384     -0.06824897604635
  C          -0.41696240538258      1.42723643458858     -0.20811029213929
  C          -0.68159983111551     -1.49464517189332     -0.21442837911851
  C           2.06659254520811      1.14155674302216     -0.04258376458982
  C           3.21471394991881      0.33296046620710      0.02998871073975
  C           1.81428393146782     -1.64928301856028     -0.07476102234765
  C           3.06437688100830     -1.03731540881575      0.01133121138470
  C          -2.88178443826108      1.57354392841501      0.04963155777389
  C          -3.13384229742939     -1.19810293128520      0.03987432481579
  C           4.57803443083972      0.95785933793854      0.12477874728940
  C          -4.13073595589689      0.98990462940392      0.17198769888462
  C          -4.25719343132881     -0.39965444102407      0.16681139924436
  H           3.12632819292060      2.71990756464567      0.09543810447116
  H           2.61737164734288     -3.36925289064822      0.00888331087737
  H           3.94877246788180     -1.66439673498646      0.06580641570154
  H          -2.75851700975680      2.64740038009934      0.03754917836234
  H          -3.20565155676927     -2.27654382157622      0.02047813792918
  H           4.68079020607787      1.57266555764275      1.02534385999198
  H           5.35239894606702      0.19403392421983      0.16563231382400
  H           4.79147020335233      1.59476072479286     -0.73963858917657
  H          -5.01089505047345      1.61274153443148      0.26854806369504
  H          -5.23541448495034     -0.85407287287188      0.25911802292222
