81
Coordinates from ORCA-job 9932254 E -1248.279499743738
  O           6.12605016386878      0.54583703761491     -0.98690384298803
  C          -1.57920500919483      0.21161241839601     -0.28336390404204
  C          -0.74518686840724     -1.12181688618188     -0.40025505474908
  C          -3.07122705364902     -0.08615743134612     -0.65048304033188
  C           0.76187158545858     -0.82460839049758     -0.11437220020747
  C           1.42716820532651      0.34525383778389     -0.90209304800534
  C          -3.74380717629355     -1.30685732072261      0.07126857356256
  C          -0.98075937179790      1.22050830090309     -1.28451382262302
  C          -1.29117709833454     -2.08234583360281      0.67266379582895
  C           0.47775503161599      1.55899724024643     -0.98043995814074
  C          -2.75595277584669     -2.45181047328638      0.43690978155792
  C           2.69335384825026      0.75395947029234     -0.08326720307418
  C          -4.03794889086772      1.13820895413080     -0.69034310917544
  C           1.68592406151149     -2.04239148848971     -0.18247843524162
  C          -4.49123823705418     -0.87187993393827      1.35097811032176
  C          -1.45604855846751      0.83151531343082      1.11994672588031
  C          -0.92621003820509     -1.80127527977228     -1.77427509701451
  C          -4.98674401774977      1.48095435601250      0.49226521228552
  C          -5.55300596114378      0.19471276835551      1.11256570754307
  C           3.53640657644649     -0.43743058162690      0.35439644885189
  C           1.84674027514285     -0.06131473433042     -2.32829975381094
  C          -4.77525030540817     -1.91613047550022     -0.90081383934692
  C           3.54820351343392      1.81319820056245     -0.79947266447446
  C           3.07543682946726     -1.68382389128141      0.25200971272653
  C           4.86855052148585     -0.12592532649414      1.03941015410387
  C           4.78120283353562      2.20416608671483      0.00474707909442
  C           5.64302908487558      0.98531835945119      0.28530157637014
  C          -6.14317571277608      2.31195870597526     -0.08583823644937
  C          -4.33589256302706      2.32996635715249      1.59486402568064
  C           4.57013633148799      0.37177453919601      2.47226149316802
  C           5.78157097019837     -1.35257767923868      1.16917861359171
  H           6.69186410169581     -0.22107089078961     -0.85737103786876
  H          -3.00692798359878     -0.37826989434443     -1.69986118730727
  H           0.79558689807554     -0.51785162332659      0.93425007109219
  H          -1.07757989168116      0.83810411254984     -2.30258111888147
  H          -1.55016668082046      2.15089847263633     -1.26143871223574
  H          -0.71582795397123     -3.01004601888418      0.68007980717130
  H          -1.15325266131209     -1.63730303069976      1.65925921022558
  H           0.51946170359912      2.10595024522844     -0.03565652672666
  H           0.84195898635383      2.25378825314788     -1.74013390132733
  H          -3.13993798146607     -2.96439206967668      1.32335401941164
  H          -2.78677223699138     -3.19965683015529     -0.35641273038150
  H           2.31536967641083      1.23040471164438      0.83219026044038
  H          -3.47994084357019      2.03940359725681     -0.94692729096113
  H          -4.69162047664605      0.96527034155444     -1.54823009701745
  H           1.32119672880557     -2.83320678799235      0.47685563339477
  H           1.70425168657413     -2.48186145321560     -1.18440176406654
  H          -4.96763476747758     -1.75917013286900      1.77863332147681
  H          -3.77832366480196     -0.52795391553880      2.10227684813946
  H          -2.02305273747283      0.28942075076336      1.86903577297959
  H          -0.42910636903265      0.87716975342824      1.47077815326813
  H          -1.82557114738317      1.85387477304725      1.09958896115928
  H          -0.25874435243122     -2.65831170676555     -1.86106074622288
  H          -1.93435329804952     -2.17645261968759     -1.91772015126189
  H          -0.71894489441025     -1.13974462560537     -2.60873180581996
  H          -6.33038843834081     -0.20976083361129      0.46011779335559
  H          -6.05185324347421      0.43997681164763      2.05531183670878
  H           2.66358624835844     -0.78204603522093     -2.32080032699103
  H           1.02588567602156     -0.49294214777391     -2.89178972853468
  H           2.18906079981637      0.81158417438785     -2.88270044008341
  H          -5.31027938770222     -2.74163963970467     -0.42397503421838
  H          -5.51561965309956     -1.19273611640138     -1.23906062218855
  H          -4.27519240134871     -2.31127731777130     -1.78708176718462
  H           3.88488712726863      1.42814583185320     -1.76040795049644
  H           2.94175777512313      2.69834083966987     -0.99824759818963
  H           3.70048899667828     -2.51600685661817      0.55100652534301
  H           5.37945588748831      2.92991073414468     -0.55031839320259
  H           4.49865115215632      2.67751435616191      0.94755665297034
  H           6.49629907540810      1.27580691855675      0.91358492045308
  H          -6.86514728134134      2.56769192523993      0.69350163463929
  H          -5.77679509820435      3.24551663682419     -0.52117917380779
  H          -6.67147994563073      1.76140496795142     -0.86742666177048
  H          -5.11104033068327      2.72104339042218      2.25823997721941
  H          -3.64079317290110      1.76424680408701      2.20814875952518
  H          -3.79867984048523      3.18321442181681      1.17399245143535
  H           4.10972140637523     -0.43003445619385      3.05062866825685
  H           5.49252701516224      0.67189629011338      2.97630741707262
  H           3.88993467327601      1.22137881515814      2.48488918959282
  H           5.36474252615124     -2.08930515309282      1.85570855046727
  H           5.93773466519644     -1.85405323738090      0.21253892708729
  H           6.75248273445058     -1.05071875588101      1.57132860296787
