24
Coordinates from ORCA-job 995 E -539.439817125845
  C          -0.72517093462571     -0.38315406479556      0.00015545214112
  C           0.72516510116206     -0.38313591309111      0.00013092745553
  C          -1.41603814828654      0.85685258616814      0.00019722454712
  C           1.41599684434429      0.85689038367115      0.00016481078474
  C          -0.67653029987917      2.07991598252856      0.00024430058157
  C           0.67645406340865      2.07993382012486      0.00022857349872
  C          -1.49061491418362     -1.56527903299321      0.00012229676822
  C           1.49064358073102     -1.56523803141650      0.00006120993915
  C          -2.82449582094808      0.86882372981857      0.00019184913340
  C           2.82445411072450      0.86890305068572      0.00011996510535
  C          -2.86676540715403     -1.52954664483089      0.00011358260975
  C           2.86679442945821     -1.52946707625410      0.00002408446828
  C          -3.54393340093964     -0.30212720086731      0.00014797277612
  C           3.54392674144575     -0.30202666978696      0.00005173406060
  H          -1.22732170222869      3.01278030547797      0.00028567512838
  H           1.22722006487360      3.01281324371421      0.00025763774875
  H          -0.99723758914560     -2.52635694432956      0.00009546497621
  H           0.99729756692402     -2.52633243454521      0.00002730491364
  H          -3.33448044066627      1.82474569318702      0.00021607636063
  H           3.33441031031927      1.82483990392758      0.00013722940212
  H          -3.42785534843289     -2.45528013734399      0.00008244559473
  H           3.42791292353111     -2.45518436728334     -0.00003245713188
  H          -4.62605379417824     -0.27907244815183      0.00013644027269
  H           4.62604706374599     -0.27893773361420      0.00001419886505
