51
Coordinates from ORCA-job 99649 E -1564.388797458314
  O           1.75187848458858      0.46665422364133      0.16275696208489
  O           1.73842829530857     -0.94337150661748     -1.62241500134224
  O           5.68360420150694      1.40270958191674     -0.51892894256787
  O           4.46484239909607      2.23938655855580      1.90307303623010
  O           4.56367893239637     -0.93796687629141     -1.65097760148028
  O           0.25241887985345      1.29533177099769      2.41090144412130
  O          -0.36157663297868      0.91903531541788     -1.96574793757879
  O           0.17317964223899     -5.32807720747382     -0.93784270472385
  O          -3.81927548482734     -2.38661363469175      0.10575870321449
  O          -1.18772053761641      2.95438895177037     -0.33022800462201
  C           4.54812628101380      0.77195654061895      0.05644490446441
  C           3.67349657402728      1.75364092144319      0.81616988309066
  C           3.78994101505762      0.09815736369407     -1.07785466414768
  C           2.40715590456473      1.03584067500863      1.29103913304980
  C           2.50356534422403     -0.50693529590530     -0.53893705451189
  C           1.39864491155993      1.97208059670559      1.93230409516779
  C           0.68328721617124     -1.75965572578161     -1.29961169094405
  C          -0.57887199786168     -1.23125605652759     -0.99176130803859
  C          -1.57582035619817     -2.12852291072776     -0.58735412566842
  C          -0.90735437359587      0.21409825574195     -1.14540064051318
  C           0.91652763032819     -3.12356868630932     -1.26920401706917
  C          -2.00679603831341      0.71779257640108     -0.27437126151571
  C          -2.99731276476232     -0.16996626623735      0.18126232641443
  C          -2.89149195889971     -1.62757661773819     -0.10751188135645
  C          -1.35620186019385     -3.50067002580413     -0.57316290953419
  C          -0.11144109267367     -3.99986898597363     -0.92803622608070
  C          -2.14180402024617      2.07425715966299      0.05783185864962
  C          -4.08958234929630      0.27356446704695      0.91039359336971
  C          -4.21702028697743      1.61949698069245      1.24408610621348
  C          -3.23204546141893      2.49959769449257      0.81652457093156
  C          -5.37386154652094      2.09904653713708      2.07433576723754
  H           6.16459727977629      1.83573102657503      0.19677756547829
  H           4.14339750791981      3.10477452839611      2.17319581641149
  H           5.42628964459542     -0.56197819693303     -1.86561418130151
  H          -0.16620236059488      0.85707939539149      1.65949137548161
  H          -0.61044084696503     -5.83084492453442     -0.68574086004580
  H          -1.40765214457217      3.82760498539500      0.01525405323230
  H           4.87365457879972     -0.00469918133220      0.76290396963874
  H           3.39326868438362      2.57365390889384      0.14575404639542
  H           3.51356716212373      0.84819647344165     -1.82835228446280
  H           2.68300792545406      0.25062073508271      2.00848842489268
  H           2.73092962078678     -1.35000558646540      0.13180487589345
  H           1.12208114251116      2.73894044074201      1.19800561726006
  H           1.85293066717752      2.45466615833407      2.79901977090603
  H           1.90012812995499     -3.50189706342320     -1.51134812312750
  H          -2.16664326780303     -4.15256433364078     -0.27140611229895
  H          -4.83220327720469     -0.45001684517843      1.21749628998895
  H          -3.30531659260750      3.55096877212971      1.07705418241200
  H          -5.22115463103032      1.84535174843530      3.12678337224804
  H          -5.49564718679394      3.18008439131164      2.00632947052488
  H          -6.30471398546648      1.62619819251290      1.75836131792792
