39
Coordinates from ORCA-job 99693 E -1182.924356495883
  O           1.79076208356256     -0.84347705543792      0.55227388656222
  O           0.77210879713787      1.08424145346090      1.22778213322150
  O           5.33519831602909      1.08758505467285     -0.20134324797336
  O           4.90868467208578     -1.54035743036001     -1.19226799052507
  O           2.93543111626827      2.60636188269872      0.13021440058534
  O           1.29046967337078     -3.49500254418368     -0.21110440545078
  O          -3.00487335781303     -0.99216720847320     -0.81092965991565
  O          -4.71444632491487     -1.99305630704954     -1.82064615071059
  C           4.02774767514769      0.58644026144293     -0.43748213727773
  C           4.07409863299696     -0.92017902405963     -0.23107980531971
  C           3.00057560669723      1.23195833261046      0.47714339523330
  C           2.67078381461056     -1.50499199055892     -0.36868846832182
  C           1.65922363106946      0.53254122756610      0.29297153840396
  C           2.59932229020633     -2.98322012390264     -0.04121951902133
  C          -0.56986827038700      0.87163847295963      1.08601669115243
  C          -1.11924033248317     -0.00905141847382      0.16523450376629
  C          -1.38685380336947      1.61300288889736      1.94932642566793
  C          -2.50309404976623     -0.12531861893636      0.10452582878920
  C          -3.34592400566213      0.60574821578562      0.95102926565416
  C          -2.75396268951013      1.47581959663794      1.87749076592952
  C          -4.75735997681392      0.40759855031484      0.81416709149100
  C          -5.24900876182986     -0.45192855728026     -0.09855922623645
  C          -4.37510810688268     -1.20973980460488     -0.97741607931430
  H           5.31163842234452      2.04494363697550     -0.31885433791920
  H           5.74736020096093     -1.06223452900151     -1.19655708568692
  H           2.34437557404919      3.04950302946433      0.74966617349749
  H           0.70494252217479     -3.00513997782503      0.37850349758635
  H           3.73494773313723      0.78237138885392     -1.47812216556029
  H           4.44111959618391     -1.11900348973298      0.78489883448728
  H           3.30667863452940      1.10258134325080      1.52135180098402
  H           2.31087620977364     -1.34868439821941     -1.39413591557012
  H           1.27995343152774      0.69888538325621     -0.72584536380351
  H           2.95892468202160     -3.13793323282773      0.98414058427592
  H           3.25012499374445     -3.53026448855747     -0.72090892374532
  H          -0.51642995055047     -0.62381200702273     -0.48428573806833
  H          -0.92250303468896      2.28376995559848      2.65841906044062
  H          -3.39059479522210      2.04745663067449      2.54115397340691
  H          -5.42580545787602      0.96397503973715      1.46125241745299
  H          -6.30708539185999     -0.62463913835054     -0.22819504816797
