20
Coordinates from ORCA-job 997 E -573.401422889914
  O           1.21339517503326     -1.31717526037093      0.59081938322570
  O           3.80221570698237     -0.89853130877694      0.38468627928557
  O           3.41243739148424      1.10428553481438     -0.53758900185948
  C          -0.90281664869950      0.42909185850710     -0.19961897518399
  C           0.54154454479925      0.79526544113166     -0.38074433714548
  C          -1.58564791654362     -0.26994600179438     -1.19192372224676
  C          -1.57401830617431      0.75674123745169      0.97577779357523
  C           1.50736718466697     -0.25391446576112      0.09881726664608
  C          -2.91378086972932     -0.63502414837125     -1.01443143108813
  C          -2.90220187020946      0.39358724425383      1.15742976131498
  C          -3.57552786638732     -0.30418995862611      0.16199283118867
  C           3.01359526769322      0.07900832136500     -0.06241795547191
  H           3.21577483757715     -1.60704068916197      0.71462557509104
  H           0.78643157945826      0.99503676339597     -1.42882079822927
  H           0.79846479628702      1.72358416187103      0.13917692235738
  H          -1.07480114866739     -0.53046808752890     -2.11146730289380
  H          -1.05411385018516      1.30116663690487      1.75533277044837
  H          -3.43222837240177     -1.17626778896452     -1.79544547802396
  H          -3.41155308714785      0.65712550356743      2.07547976794299
  H          -4.61118654783604     -0.58620799390684      0.30109065106678
