61
Coordinates from ORCA-job 9971827 E -861.271086222873
  O           3.37433541861665     -0.28091726292832     -2.63647092131631
  C          -2.92677022431962     -2.49240230695842     -0.18014288234078
  C          -2.97933661461120     -1.17165664317198     -0.96062852316830
  C          -2.73706689645766      2.66406322443468     -0.13896150869512
  C          -3.01568068155370      0.08652218118802     -0.09749074414417
  C          -2.99917205343763      1.36962594711543     -0.92888751802539
  C          -1.78354189086841     -2.54377399344323      0.85030572173955
  C          -1.42515792334071      2.63059933205285      0.66095109531732
  C          -0.38366008379041     -2.25277812255156      0.30873739351055
  C           0.68307941088288     -2.31141318346958      1.40081081044102
  C          -2.87527159901049     -3.67855551281018     -1.14572514385741
  C          -0.18883662473998      2.23726319449844     -0.14421848544970
  C          -3.90831913490952      3.02008806679870      0.77885725456000
  C           2.07791549350693     -1.84492751091128      0.96856137279418
  C           1.07833764296517      2.23920177825815      0.70101023089887
  C           2.66087773513970     -2.71430994401829     -0.14675802328385
  C           3.02775401963892     -1.80186215165370      2.16567707926291
  C           2.36422356993570      1.81502114896726      0.03209489608973
  C           3.54706047985088      1.83105047012859      0.96123710160210
  C           2.42014501153702      1.46626413508787     -1.25604229014298
  C           3.61000979125979      0.99469413469014     -2.02972308014201
  H           3.10080183339945     -0.89339230357851     -1.94414202068351
  H          -3.86033042623006     -2.57390657910411      0.38994343359813
  H          -2.11287153596200     -1.11704974993725     -1.62872350751961
  H          -3.85677035039913     -1.18821765335637     -1.61588340135629
  H          -2.64333873519211      3.46640457426852     -0.88092163557401
  H          -3.89823963476963      0.06276942865434      0.54925913595856
  H          -2.15352994300439      0.08248225587944      0.57120490219260
  H          -3.94997737590824      1.47072812961350     -1.46224070496311
  H          -2.23481710763659      1.26986767132754     -1.70466349115038
  H          -1.99702923181280     -1.83741531324124      1.65774717748665
  H          -1.78492697031807     -3.53487065736166      1.31660306063734
  H          -1.26691816233087      3.62050016619430      1.10207589191864
  H          -1.53501373339641      1.94504709633069      1.50799613656978
  H          -0.14119977207802     -2.95987148392103     -0.48788150744714
  H          -0.36016739573269     -1.25886371575114     -0.14835452583478
  H           0.35676679545595     -1.68744607470529      2.24046175556011
  H           0.75146140167188     -3.33355546753877      1.79293441026185
  H          -2.88114264871837     -4.62865391245814     -0.60674054200445
  H          -3.73397997453692     -3.67043498192384     -1.82071158817362
  H          -1.97456421443129     -3.65041696344821     -1.76337589145127
  H          -0.32779917106003      1.24075616497613     -0.56889056965685
  H          -0.07418371427769      2.91951716250167     -0.99237752906693
  H          -4.04460959560057      2.26623390892537      1.55778149562570
  H          -3.74025345946520      3.97828763973198      1.27577280739228
  H          -4.84257065595701      3.09270029955606      0.21759161938762
  H           1.97747755932259     -0.82547337128617      0.58056552763471
  H           1.22948493089708      3.23803134750871      1.13050067075250
  H           0.92497263132411      1.58407286840927      1.56917344652687
  H           2.73621882608387     -3.75796427078096      0.17201578893756
  H           2.04438494824462     -2.69279636393725     -1.04759009220987
  H           3.66915649558868     -2.38671765142475     -0.41433554600673
  H           3.16576509640576     -2.80112991990347      2.58863844052310
  H           4.01141749825650     -1.42402002616831      1.87876254688044
  H           2.63782582468037     -1.15795035120892      2.95728242834878
  H           3.31877658901852      1.27486411910211      1.87436598891639
  H           4.44708532281212      1.40650543943978      0.52297750988454
  H           3.77674366098444      2.85602193602321      1.26835551232369
  H           1.50881473653864      1.48638435795439     -1.84333980319906
  H           4.51499154315724      0.96477482465464     -1.41696938313335
  H           3.80789626868197      1.66866243868012     -2.86690978353709
