28
Coordinates from ORCA-job 9990075 E -616.095872993798
  O          -0.40460652043209      1.33990330107751     -0.58602975270173
  O           1.12282315466879      2.87771063762140      0.03689641161348
  C          -0.49160715621072     -0.09912352499703     -0.72785884849745
  C          -1.62095082358185     -0.63949187880286      0.13775961322706
  C           0.87682107714206     -0.58499000188515     -0.34542076165020
  C          -2.99635475191844     -0.11150860438847     -0.25891750775734
  C           1.65140962073684      0.50898708792271     -0.00144565752602
  C          -4.11650246564646     -0.64946036632068      0.62847335510352
  C           0.83606443022720      1.73052112169142     -0.15539588505478
  C           1.40214138957344     -1.86623961917056     -0.28689943158101
  C           2.96899184651509      0.37778739169774      0.41236136999836
  C          -5.49315067546020     -0.12505773739081      0.22947523582071
  C           2.72346098407997     -2.01103296827870      0.12504347181107
  C           3.50104908255293     -0.90281761059580      0.47199430394770
  H          -0.70390114905232     -0.29614967661153     -1.78376356465473
  H          -1.60387781957234     -1.73192394624825      0.06462359686456
  H          -1.40296520368321     -0.39009676260747      1.18052167052291
  H          -2.98660583934318      0.98052644001457     -0.21669404433574
  H          -3.19911331628887     -0.37852365960968     -1.30252967650460
  H          -4.11558427689721     -1.74428352811185      0.59107947433027
  H          -3.90953943104000     -0.38024596253250      1.66943425839273
  H           0.81113346501542     -2.73364559988630     -0.55231896723955
  H           3.55015767585064      1.25150516204728      0.67590336219085
  H          -6.27479236372278     -0.52040871094815      0.88086988617004
  H          -5.52907759282760      0.96535776957090      0.28835831090189
  H          -5.73950908427850     -0.40848816703555     -0.79687574333415
  H           3.15872219144521     -3.00083765950824      0.17860680751798
  H           4.52537655214820     -1.04903092671393      0.78869071242419
